&CONTROL
  calculation = 'nscf'
  wf_collect         = .true.
  etot_conv_thr =   2.0000000000d-04
  forc_conv_thr =   1.0000000000d-04
  outdir = './out/'
  prefix = 'smo'
  pseudo_dir = '../pseudo/'
  tprnfor = .true.
  tstress = .true.
  verbosity = 'high'
/
&SYSTEM
  degauss =   1.5000000000d-03
  ecutrho =   4.0000000000d+02
  ecutwfc =   5.0000000000d+01
  ibrav = 0
  nat = 20
  ntyp = 3
  occupations = 'smearing'
  smearing = 'f-d'
  dmft = .true.
  nosym = .true.
/
&ELECTRONS
  conv_thr           = 1.0d-8
  mixing_beta        = 0.3
  mixing_mode        = 'local-TF'
  startingpot        = 'file'
/
ATOMIC_SPECIES
Mo     95.96 Mo_ONCV_PBEsol-1.0.upf
O      15.9994 O.pbesol-n-kjpaw_psl.0.1.UPF
Sr     87.62 sr_pbesol_v1.uspp.F.UPF
ATOMIC_POSITIONS crystal
Sr           0.0000000000       0.5000000000       0.2500000000
Sr           0.0000000000       0.5000000000       0.7500000000
Sr           0.5000000000       0.0000000000       0.7500000000
Sr           0.5000000000       0.0000000000       0.2500000000
Mo           0.0000000000       0.0000000000       0.0000000000
Mo           0.0000000000       0.0000000000       0.5000000000
Mo           0.5000000000       0.5000000000       0.5000000000
Mo           0.5000000000       0.5000000000       0.0000000000
O            0.2500000000       0.7500000000       0.9710500000
O            0.2500000000       0.2500000000       0.0289500000
O            0.7500000000       0.2500000000       0.4710500000
O            0.7500000000       0.7500000000       0.5289500000
O            0.7500000000       0.2500000000       0.0289500000
O            0.7500000000       0.7500000000       0.9710500000
O            0.2500000000       0.7500000000       0.5289500000
O            0.2500000000       0.2500000000       0.4710500000
O            0.0000000000       0.9421100000       0.2500000000
O            0.0000000000       0.0578900000       0.7500000000
O            0.5000000000       0.4421100000       0.7500000000
O            0.5000000000       0.5578900000       0.2500000000
K_POINTS crystal
125
  0.00000000  0.00000000  0.00000000  8.000000e-03
  0.00000000  0.00000000  0.20000000  8.000000e-03
  0.00000000  0.00000000  0.40000000  8.000000e-03
  0.00000000  0.00000000  0.60000000  8.000000e-03
  0.00000000  0.00000000  0.80000000  8.000000e-03
  0.00000000  0.20000000  0.00000000  8.000000e-03
  0.00000000  0.20000000  0.20000000  8.000000e-03
  0.00000000  0.20000000  0.40000000  8.000000e-03
  0.00000000  0.20000000  0.60000000  8.000000e-03
  0.00000000  0.20000000  0.80000000  8.000000e-03
  0.00000000  0.40000000  0.00000000  8.000000e-03
  0.00000000  0.40000000  0.20000000  8.000000e-03
  0.00000000  0.40000000  0.40000000  8.000000e-03
  0.00000000  0.40000000  0.60000000  8.000000e-03
  0.00000000  0.40000000  0.80000000  8.000000e-03
  0.00000000  0.60000000  0.00000000  8.000000e-03
  0.00000000  0.60000000  0.20000000  8.000000e-03
  0.00000000  0.60000000  0.40000000  8.000000e-03
  0.00000000  0.60000000  0.60000000  8.000000e-03
  0.00000000  0.60000000  0.80000000  8.000000e-03
  0.00000000  0.80000000  0.00000000  8.000000e-03
  0.00000000  0.80000000  0.20000000  8.000000e-03
  0.00000000  0.80000000  0.40000000  8.000000e-03
  0.00000000  0.80000000  0.60000000  8.000000e-03
  0.00000000  0.80000000  0.80000000  8.000000e-03
  0.20000000  0.00000000  0.00000000  8.000000e-03
  0.20000000  0.00000000  0.20000000  8.000000e-03
  0.20000000  0.00000000  0.40000000  8.000000e-03
  0.20000000  0.00000000  0.60000000  8.000000e-03
  0.20000000  0.00000000  0.80000000  8.000000e-03
  0.20000000  0.20000000  0.00000000  8.000000e-03
  0.20000000  0.20000000  0.20000000  8.000000e-03
  0.20000000  0.20000000  0.40000000  8.000000e-03
  0.20000000  0.20000000  0.60000000  8.000000e-03
  0.20000000  0.20000000  0.80000000  8.000000e-03
  0.20000000  0.40000000  0.00000000  8.000000e-03
  0.20000000  0.40000000  0.20000000  8.000000e-03
  0.20000000  0.40000000  0.40000000  8.000000e-03
  0.20000000  0.40000000  0.60000000  8.000000e-03
  0.20000000  0.40000000  0.80000000  8.000000e-03
  0.20000000  0.60000000  0.00000000  8.000000e-03
  0.20000000  0.60000000  0.20000000  8.000000e-03
  0.20000000  0.60000000  0.40000000  8.000000e-03
  0.20000000  0.60000000  0.60000000  8.000000e-03
  0.20000000  0.60000000  0.80000000  8.000000e-03
  0.20000000  0.80000000  0.00000000  8.000000e-03
  0.20000000  0.80000000  0.20000000  8.000000e-03
  0.20000000  0.80000000  0.40000000  8.000000e-03
  0.20000000  0.80000000  0.60000000  8.000000e-03
  0.20000000  0.80000000  0.80000000  8.000000e-03
  0.40000000  0.00000000  0.00000000  8.000000e-03
  0.40000000  0.00000000  0.20000000  8.000000e-03
  0.40000000  0.00000000  0.40000000  8.000000e-03
  0.40000000  0.00000000  0.60000000  8.000000e-03
  0.40000000  0.00000000  0.80000000  8.000000e-03
  0.40000000  0.20000000  0.00000000  8.000000e-03
  0.40000000  0.20000000  0.20000000  8.000000e-03
  0.40000000  0.20000000  0.40000000  8.000000e-03
  0.40000000  0.20000000  0.60000000  8.000000e-03
  0.40000000  0.20000000  0.80000000  8.000000e-03
  0.40000000  0.40000000  0.00000000  8.000000e-03
  0.40000000  0.40000000  0.20000000  8.000000e-03
  0.40000000  0.40000000  0.40000000  8.000000e-03
  0.40000000  0.40000000  0.60000000  8.000000e-03
  0.40000000  0.40000000  0.80000000  8.000000e-03
  0.40000000  0.60000000  0.00000000  8.000000e-03
  0.40000000  0.60000000  0.20000000  8.000000e-03
  0.40000000  0.60000000  0.40000000  8.000000e-03
  0.40000000  0.60000000  0.60000000  8.000000e-03
  0.40000000  0.60000000  0.80000000  8.000000e-03
  0.40000000  0.80000000  0.00000000  8.000000e-03
  0.40000000  0.80000000  0.20000000  8.000000e-03
  0.40000000  0.80000000  0.40000000  8.000000e-03
  0.40000000  0.80000000  0.60000000  8.000000e-03
  0.40000000  0.80000000  0.80000000  8.000000e-03
  0.60000000  0.00000000  0.00000000  8.000000e-03
  0.60000000  0.00000000  0.20000000  8.000000e-03
  0.60000000  0.00000000  0.40000000  8.000000e-03
  0.60000000  0.00000000  0.60000000  8.000000e-03
  0.60000000  0.00000000  0.80000000  8.000000e-03
  0.60000000  0.20000000  0.00000000  8.000000e-03
  0.60000000  0.20000000  0.20000000  8.000000e-03
  0.60000000  0.20000000  0.40000000  8.000000e-03
  0.60000000  0.20000000  0.60000000  8.000000e-03
  0.60000000  0.20000000  0.80000000  8.000000e-03
  0.60000000  0.40000000  0.00000000  8.000000e-03
  0.60000000  0.40000000  0.20000000  8.000000e-03
  0.60000000  0.40000000  0.40000000  8.000000e-03
  0.60000000  0.40000000  0.60000000  8.000000e-03
  0.60000000  0.40000000  0.80000000  8.000000e-03
  0.60000000  0.60000000  0.00000000  8.000000e-03
  0.60000000  0.60000000  0.20000000  8.000000e-03
  0.60000000  0.60000000  0.40000000  8.000000e-03
  0.60000000  0.60000000  0.60000000  8.000000e-03
  0.60000000  0.60000000  0.80000000  8.000000e-03
  0.60000000  0.80000000  0.00000000  8.000000e-03
  0.60000000  0.80000000  0.20000000  8.000000e-03
  0.60000000  0.80000000  0.40000000  8.000000e-03
  0.60000000  0.80000000  0.60000000  8.000000e-03
  0.60000000  0.80000000  0.80000000  8.000000e-03
  0.80000000  0.00000000  0.00000000  8.000000e-03
  0.80000000  0.00000000  0.20000000  8.000000e-03
  0.80000000  0.00000000  0.40000000  8.000000e-03
  0.80000000  0.00000000  0.60000000  8.000000e-03
  0.80000000  0.00000000  0.80000000  8.000000e-03
  0.80000000  0.20000000  0.00000000  8.000000e-03
  0.80000000  0.20000000  0.20000000  8.000000e-03
  0.80000000  0.20000000  0.40000000  8.000000e-03
  0.80000000  0.20000000  0.60000000  8.000000e-03
  0.80000000  0.20000000  0.80000000  8.000000e-03
  0.80000000  0.40000000  0.00000000  8.000000e-03
  0.80000000  0.40000000  0.20000000  8.000000e-03
  0.80000000  0.40000000  0.40000000  8.000000e-03
  0.80000000  0.40000000  0.60000000  8.000000e-03
  0.80000000  0.40000000  0.80000000  8.000000e-03
  0.80000000  0.60000000  0.00000000  8.000000e-03
  0.80000000  0.60000000  0.20000000  8.000000e-03
  0.80000000  0.60000000  0.40000000  8.000000e-03
  0.80000000  0.60000000  0.60000000  8.000000e-03
  0.80000000  0.60000000  0.80000000  8.000000e-03
  0.80000000  0.80000000  0.00000000  8.000000e-03
  0.80000000  0.80000000  0.20000000  8.000000e-03
  0.80000000  0.80000000  0.40000000  8.000000e-03
  0.80000000  0.80000000  0.60000000  8.000000e-03
  0.80000000  0.80000000  0.80000000  8.000000e-03
CELL_PARAMETERS angstrom
      5.6089600000       0.0000000000       0.0000000000
      0.0000000000       5.6247600000       0.0000000000
      0.0000000000       0.0000000000       7.9310000000
