begin unit_cell_cart
Ang
      5.6089600000   0.0000000000   0.0000000000
      0.0000000000   5.6247600000   0.0000000000
      0.0000000000   0.0000000000   7.9310000000
end unit_cell_cart

begin atoms_frac
Sr       0.000000000   0.500000000   0.250000000
Sr       0.000000000   0.500000000   0.750000000
Sr       0.500000000   0.000000000   0.750000000
Sr       0.500000000   0.000000000   0.250000000
Mo       0.000000000   0.000000000   0.000000000
Mo       0.000000000   0.000000000   0.500000000
Mo       0.500000000   0.500000000   0.500000000
Mo       0.500000000   0.500000000   0.000000000
O        0.250000000   0.750000000   0.000000000
O        0.250000000   0.250000000   0.000000000
O        0.750000000   0.250000000   0.500000000
O        0.750000000   0.750000000   0.500000000
O        0.750000000   0.250000000   0.000000000
O        0.750000000   0.750000000   0.000000000
O        0.250000000   0.750000000   0.500000000
O        0.250000000   0.250000000   0.500000000
O        0.000000000   0.000000000   0.250000000
O        0.000000000   0.000000000   0.750000000
O        0.500000000   0.500000000   0.750000000
O        0.500000000   0.500000000   0.250000000
end atoms_frac

! system
num_wann = 12
num_bands = 12
mp_grid 9 9 7

! job control
exclude_bands : 1-80,93-101
iprint = 2

! plotting
wannier_plot = false
wannier_plot_supercell = 3
bands_plot = true
bands_num_points = 100
bands_plot_format = gnuplot
write_hr = true
write_u_matrices = true

! disentanglement
!dis_win_min = 11.0
!dis_win_max = 14.0
!dis_froz_min = 11.0
!dis_froz_max = 13.3
!dis_num_iter = 1000
!dis_conv_tol = 1.0E-9
!dis_mix_ratio = 0.9

! wannierisation
num_iter = 500
conv_window = 5
conv_tol = 1e-12

begin kpoint_path
G 0.00 0.00 0.00 X 0.00 0.50 0.00
X 0.00 0.50 0.00 M 0.50 0.50 0.00
M 0.50 0.50 0.00 G 0.00 0.00 0.00
G 0.00 0.00 0.00 Z 0.00 0.00 0.50
Z 0.00 0.00 0.50 R 0.00 0.50 0.50
R 0.00 0.50 0.50 A 0.50 0.50 0.50
A 0.50 0.50 0.50 Z 0.00 0.00 0.50
end kpoint_path

begin projections
!Mo:d
f=0,0,0:l=2,mr=2,3,5:z=0,0,1:x=1,1,0
f=0,0,0.5:l=2,mr=2,3,5:z=0,0,1:x=1,1,0
f=0.5,0.5,0.5:l=2,mr=2,3,5:z=0,0,1:x=1,1,0
f=0.5,0.5,0:l=2,mr=2,3,5:z=0,0,1:x=1,1,0
!f=0,0,0:l=2,mr=1,4:z=0,0,1:x=1,1,0
!f=0,0,0.5:l=2,mr=1,4:z=0,0,1:x=1,1,0
!f=0.5,0.5,0.5:l=2,mr=1,4:z=0,0,1:x=1,1,0
!f=0.5,0.5,0:l=2,mr=1,4:z=0,0,1:x=1,1,0
!O:px,py,pz
end projections

begin kpoints
  0.00000000  0.00000000  0.00000000
  0.00000000  0.00000000  0.14285714
  0.00000000  0.00000000  0.28571429
  0.00000000  0.00000000  0.42857143
  0.00000000  0.00000000  0.57142857
  0.00000000  0.00000000  0.71428571
  0.00000000  0.00000000  0.85714286
  0.00000000  0.11111111  0.00000000
  0.00000000  0.11111111  0.14285714
  0.00000000  0.11111111  0.28571429
  0.00000000  0.11111111  0.42857143
  0.00000000  0.11111111  0.57142857
  0.00000000  0.11111111  0.71428571
  0.00000000  0.11111111  0.85714286
  0.00000000  0.22222222  0.00000000
  0.00000000  0.22222222  0.14285714
  0.00000000  0.22222222  0.28571429
  0.00000000  0.22222222  0.42857143
  0.00000000  0.22222222  0.57142857
  0.00000000  0.22222222  0.71428571
  0.00000000  0.22222222  0.85714286
  0.00000000  0.33333333  0.00000000
  0.00000000  0.33333333  0.14285714
  0.00000000  0.33333333  0.28571429
  0.00000000  0.33333333  0.42857143
  0.00000000  0.33333333  0.57142857
  0.00000000  0.33333333  0.71428571
  0.00000000  0.33333333  0.85714286
  0.00000000  0.44444444  0.00000000
  0.00000000  0.44444444  0.14285714
  0.00000000  0.44444444  0.28571429
  0.00000000  0.44444444  0.42857143
  0.00000000  0.44444444  0.57142857
  0.00000000  0.44444444  0.71428571
  0.00000000  0.44444444  0.85714286
  0.00000000  0.55555556  0.00000000
  0.00000000  0.55555556  0.14285714
  0.00000000  0.55555556  0.28571429
  0.00000000  0.55555556  0.42857143
  0.00000000  0.55555556  0.57142857
  0.00000000  0.55555556  0.71428571
  0.00000000  0.55555556  0.85714286
  0.00000000  0.66666667  0.00000000
  0.00000000  0.66666667  0.14285714
  0.00000000  0.66666667  0.28571429
  0.00000000  0.66666667  0.42857143
  0.00000000  0.66666667  0.57142857
  0.00000000  0.66666667  0.71428571
  0.00000000  0.66666667  0.85714286
  0.00000000  0.77777778  0.00000000
  0.00000000  0.77777778  0.14285714
  0.00000000  0.77777778  0.28571429
  0.00000000  0.77777778  0.42857143
  0.00000000  0.77777778  0.57142857
  0.00000000  0.77777778  0.71428571
  0.00000000  0.77777778  0.85714286
  0.00000000  0.88888889  0.00000000
  0.00000000  0.88888889  0.14285714
  0.00000000  0.88888889  0.28571429
  0.00000000  0.88888889  0.42857143
  0.00000000  0.88888889  0.57142857
  0.00000000  0.88888889  0.71428571
  0.00000000  0.88888889  0.85714286
  0.11111111  0.00000000  0.00000000
  0.11111111  0.00000000  0.14285714
  0.11111111  0.00000000  0.28571429
  0.11111111  0.00000000  0.42857143
  0.11111111  0.00000000  0.57142857
  0.11111111  0.00000000  0.71428571
  0.11111111  0.00000000  0.85714286
  0.11111111  0.11111111  0.00000000
  0.11111111  0.11111111  0.14285714
  0.11111111  0.11111111  0.28571429
  0.11111111  0.11111111  0.42857143
  0.11111111  0.11111111  0.57142857
  0.11111111  0.11111111  0.71428571
  0.11111111  0.11111111  0.85714286
  0.11111111  0.22222222  0.00000000
  0.11111111  0.22222222  0.14285714
  0.11111111  0.22222222  0.28571429
  0.11111111  0.22222222  0.42857143
  0.11111111  0.22222222  0.57142857
  0.11111111  0.22222222  0.71428571
  0.11111111  0.22222222  0.85714286
  0.11111111  0.33333333  0.00000000
  0.11111111  0.33333333  0.14285714
  0.11111111  0.33333333  0.28571429
  0.11111111  0.33333333  0.42857143
  0.11111111  0.33333333  0.57142857
  0.11111111  0.33333333  0.71428571
  0.11111111  0.33333333  0.85714286
  0.11111111  0.44444444  0.00000000
  0.11111111  0.44444444  0.14285714
  0.11111111  0.44444444  0.28571429
  0.11111111  0.44444444  0.42857143
  0.11111111  0.44444444  0.57142857
  0.11111111  0.44444444  0.71428571
  0.11111111  0.44444444  0.85714286
  0.11111111  0.55555556  0.00000000
  0.11111111  0.55555556  0.14285714
  0.11111111  0.55555556  0.28571429
  0.11111111  0.55555556  0.42857143
  0.11111111  0.55555556  0.57142857
  0.11111111  0.55555556  0.71428571
  0.11111111  0.55555556  0.85714286
  0.11111111  0.66666667  0.00000000
  0.11111111  0.66666667  0.14285714
  0.11111111  0.66666667  0.28571429
  0.11111111  0.66666667  0.42857143
  0.11111111  0.66666667  0.57142857
  0.11111111  0.66666667  0.71428571
  0.11111111  0.66666667  0.85714286
  0.11111111  0.77777778  0.00000000
  0.11111111  0.77777778  0.14285714
  0.11111111  0.77777778  0.28571429
  0.11111111  0.77777778  0.42857143
  0.11111111  0.77777778  0.57142857
  0.11111111  0.77777778  0.71428571
  0.11111111  0.77777778  0.85714286
  0.11111111  0.88888889  0.00000000
  0.11111111  0.88888889  0.14285714
  0.11111111  0.88888889  0.28571429
  0.11111111  0.88888889  0.42857143
  0.11111111  0.88888889  0.57142857
  0.11111111  0.88888889  0.71428571
  0.11111111  0.88888889  0.85714286
  0.22222222  0.00000000  0.00000000
  0.22222222  0.00000000  0.14285714
  0.22222222  0.00000000  0.28571429
  0.22222222  0.00000000  0.42857143
  0.22222222  0.00000000  0.57142857
  0.22222222  0.00000000  0.71428571
  0.22222222  0.00000000  0.85714286
  0.22222222  0.11111111  0.00000000
  0.22222222  0.11111111  0.14285714
  0.22222222  0.11111111  0.28571429
  0.22222222  0.11111111  0.42857143
  0.22222222  0.11111111  0.57142857
  0.22222222  0.11111111  0.71428571
  0.22222222  0.11111111  0.85714286
  0.22222222  0.22222222  0.00000000
  0.22222222  0.22222222  0.14285714
  0.22222222  0.22222222  0.28571429
  0.22222222  0.22222222  0.42857143
  0.22222222  0.22222222  0.57142857
  0.22222222  0.22222222  0.71428571
  0.22222222  0.22222222  0.85714286
  0.22222222  0.33333333  0.00000000
  0.22222222  0.33333333  0.14285714
  0.22222222  0.33333333  0.28571429
  0.22222222  0.33333333  0.42857143
  0.22222222  0.33333333  0.57142857
  0.22222222  0.33333333  0.71428571
  0.22222222  0.33333333  0.85714286
  0.22222222  0.44444444  0.00000000
  0.22222222  0.44444444  0.14285714
  0.22222222  0.44444444  0.28571429
  0.22222222  0.44444444  0.42857143
  0.22222222  0.44444444  0.57142857
  0.22222222  0.44444444  0.71428571
  0.22222222  0.44444444  0.85714286
  0.22222222  0.55555556  0.00000000
  0.22222222  0.55555556  0.14285714
  0.22222222  0.55555556  0.28571429
  0.22222222  0.55555556  0.42857143
  0.22222222  0.55555556  0.57142857
  0.22222222  0.55555556  0.71428571
  0.22222222  0.55555556  0.85714286
  0.22222222  0.66666667  0.00000000
  0.22222222  0.66666667  0.14285714
  0.22222222  0.66666667  0.28571429
  0.22222222  0.66666667  0.42857143
  0.22222222  0.66666667  0.57142857
  0.22222222  0.66666667  0.71428571
  0.22222222  0.66666667  0.85714286
  0.22222222  0.77777778  0.00000000
  0.22222222  0.77777778  0.14285714
  0.22222222  0.77777778  0.28571429
  0.22222222  0.77777778  0.42857143
  0.22222222  0.77777778  0.57142857
  0.22222222  0.77777778  0.71428571
  0.22222222  0.77777778  0.85714286
  0.22222222  0.88888889  0.00000000
  0.22222222  0.88888889  0.14285714
  0.22222222  0.88888889  0.28571429
  0.22222222  0.88888889  0.42857143
  0.22222222  0.88888889  0.57142857
  0.22222222  0.88888889  0.71428571
  0.22222222  0.88888889  0.85714286
  0.33333333  0.00000000  0.00000000
  0.33333333  0.00000000  0.14285714
  0.33333333  0.00000000  0.28571429
  0.33333333  0.00000000  0.42857143
  0.33333333  0.00000000  0.57142857
  0.33333333  0.00000000  0.71428571
  0.33333333  0.00000000  0.85714286
  0.33333333  0.11111111  0.00000000
  0.33333333  0.11111111  0.14285714
  0.33333333  0.11111111  0.28571429
  0.33333333  0.11111111  0.42857143
  0.33333333  0.11111111  0.57142857
  0.33333333  0.11111111  0.71428571
  0.33333333  0.11111111  0.85714286
  0.33333333  0.22222222  0.00000000
  0.33333333  0.22222222  0.14285714
  0.33333333  0.22222222  0.28571429
  0.33333333  0.22222222  0.42857143
  0.33333333  0.22222222  0.57142857
  0.33333333  0.22222222  0.71428571
  0.33333333  0.22222222  0.85714286
  0.33333333  0.33333333  0.00000000
  0.33333333  0.33333333  0.14285714
  0.33333333  0.33333333  0.28571429
  0.33333333  0.33333333  0.42857143
  0.33333333  0.33333333  0.57142857
  0.33333333  0.33333333  0.71428571
  0.33333333  0.33333333  0.85714286
  0.33333333  0.44444444  0.00000000
  0.33333333  0.44444444  0.14285714
  0.33333333  0.44444444  0.28571429
  0.33333333  0.44444444  0.42857143
  0.33333333  0.44444444  0.57142857
  0.33333333  0.44444444  0.71428571
  0.33333333  0.44444444  0.85714286
  0.33333333  0.55555556  0.00000000
  0.33333333  0.55555556  0.14285714
  0.33333333  0.55555556  0.28571429
  0.33333333  0.55555556  0.42857143
  0.33333333  0.55555556  0.57142857
  0.33333333  0.55555556  0.71428571
  0.33333333  0.55555556  0.85714286
  0.33333333  0.66666667  0.00000000
  0.33333333  0.66666667  0.14285714
  0.33333333  0.66666667  0.28571429
  0.33333333  0.66666667  0.42857143
  0.33333333  0.66666667  0.57142857
  0.33333333  0.66666667  0.71428571
  0.33333333  0.66666667  0.85714286
  0.33333333  0.77777778  0.00000000
  0.33333333  0.77777778  0.14285714
  0.33333333  0.77777778  0.28571429
  0.33333333  0.77777778  0.42857143
  0.33333333  0.77777778  0.57142857
  0.33333333  0.77777778  0.71428571
  0.33333333  0.77777778  0.85714286
  0.33333333  0.88888889  0.00000000
  0.33333333  0.88888889  0.14285714
  0.33333333  0.88888889  0.28571429
  0.33333333  0.88888889  0.42857143
  0.33333333  0.88888889  0.57142857
  0.33333333  0.88888889  0.71428571
  0.33333333  0.88888889  0.85714286
  0.44444444  0.00000000  0.00000000
  0.44444444  0.00000000  0.14285714
  0.44444444  0.00000000  0.28571429
  0.44444444  0.00000000  0.42857143
  0.44444444  0.00000000  0.57142857
  0.44444444  0.00000000  0.71428571
  0.44444444  0.00000000  0.85714286
  0.44444444  0.11111111  0.00000000
  0.44444444  0.11111111  0.14285714
  0.44444444  0.11111111  0.28571429
  0.44444444  0.11111111  0.42857143
  0.44444444  0.11111111  0.57142857
  0.44444444  0.11111111  0.71428571
  0.44444444  0.11111111  0.85714286
  0.44444444  0.22222222  0.00000000
  0.44444444  0.22222222  0.14285714
  0.44444444  0.22222222  0.28571429
  0.44444444  0.22222222  0.42857143
  0.44444444  0.22222222  0.57142857
  0.44444444  0.22222222  0.71428571
  0.44444444  0.22222222  0.85714286
  0.44444444  0.33333333  0.00000000
  0.44444444  0.33333333  0.14285714
  0.44444444  0.33333333  0.28571429
  0.44444444  0.33333333  0.42857143
  0.44444444  0.33333333  0.57142857
  0.44444444  0.33333333  0.71428571
  0.44444444  0.33333333  0.85714286
  0.44444444  0.44444444  0.00000000
  0.44444444  0.44444444  0.14285714
  0.44444444  0.44444444  0.28571429
  0.44444444  0.44444444  0.42857143
  0.44444444  0.44444444  0.57142857
  0.44444444  0.44444444  0.71428571
  0.44444444  0.44444444  0.85714286
  0.44444444  0.55555556  0.00000000
  0.44444444  0.55555556  0.14285714
  0.44444444  0.55555556  0.28571429
  0.44444444  0.55555556  0.42857143
  0.44444444  0.55555556  0.57142857
  0.44444444  0.55555556  0.71428571
  0.44444444  0.55555556  0.85714286
  0.44444444  0.66666667  0.00000000
  0.44444444  0.66666667  0.14285714
  0.44444444  0.66666667  0.28571429
  0.44444444  0.66666667  0.42857143
  0.44444444  0.66666667  0.57142857
  0.44444444  0.66666667  0.71428571
  0.44444444  0.66666667  0.85714286
  0.44444444  0.77777778  0.00000000
  0.44444444  0.77777778  0.14285714
  0.44444444  0.77777778  0.28571429
  0.44444444  0.77777778  0.42857143
  0.44444444  0.77777778  0.57142857
  0.44444444  0.77777778  0.71428571
  0.44444444  0.77777778  0.85714286
  0.44444444  0.88888889  0.00000000
  0.44444444  0.88888889  0.14285714
  0.44444444  0.88888889  0.28571429
  0.44444444  0.88888889  0.42857143
  0.44444444  0.88888889  0.57142857
  0.44444444  0.88888889  0.71428571
  0.44444444  0.88888889  0.85714286
  0.55555556  0.00000000  0.00000000
  0.55555556  0.00000000  0.14285714
  0.55555556  0.00000000  0.28571429
  0.55555556  0.00000000  0.42857143
  0.55555556  0.00000000  0.57142857
  0.55555556  0.00000000  0.71428571
  0.55555556  0.00000000  0.85714286
  0.55555556  0.11111111  0.00000000
  0.55555556  0.11111111  0.14285714
  0.55555556  0.11111111  0.28571429
  0.55555556  0.11111111  0.42857143
  0.55555556  0.11111111  0.57142857
  0.55555556  0.11111111  0.71428571
  0.55555556  0.11111111  0.85714286
  0.55555556  0.22222222  0.00000000
  0.55555556  0.22222222  0.14285714
  0.55555556  0.22222222  0.28571429
  0.55555556  0.22222222  0.42857143
  0.55555556  0.22222222  0.57142857
  0.55555556  0.22222222  0.71428571
  0.55555556  0.22222222  0.85714286
  0.55555556  0.33333333  0.00000000
  0.55555556  0.33333333  0.14285714
  0.55555556  0.33333333  0.28571429
  0.55555556  0.33333333  0.42857143
  0.55555556  0.33333333  0.57142857
  0.55555556  0.33333333  0.71428571
  0.55555556  0.33333333  0.85714286
  0.55555556  0.44444444  0.00000000
  0.55555556  0.44444444  0.14285714
  0.55555556  0.44444444  0.28571429
  0.55555556  0.44444444  0.42857143
  0.55555556  0.44444444  0.57142857
  0.55555556  0.44444444  0.71428571
  0.55555556  0.44444444  0.85714286
  0.55555556  0.55555556  0.00000000
  0.55555556  0.55555556  0.14285714
  0.55555556  0.55555556  0.28571429
  0.55555556  0.55555556  0.42857143
  0.55555556  0.55555556  0.57142857
  0.55555556  0.55555556  0.71428571
  0.55555556  0.55555556  0.85714286
  0.55555556  0.66666667  0.00000000
  0.55555556  0.66666667  0.14285714
  0.55555556  0.66666667  0.28571429
  0.55555556  0.66666667  0.42857143
  0.55555556  0.66666667  0.57142857
  0.55555556  0.66666667  0.71428571
  0.55555556  0.66666667  0.85714286
  0.55555556  0.77777778  0.00000000
  0.55555556  0.77777778  0.14285714
  0.55555556  0.77777778  0.28571429
  0.55555556  0.77777778  0.42857143
  0.55555556  0.77777778  0.57142857
  0.55555556  0.77777778  0.71428571
  0.55555556  0.77777778  0.85714286
  0.55555556  0.88888889  0.00000000
  0.55555556  0.88888889  0.14285714
  0.55555556  0.88888889  0.28571429
  0.55555556  0.88888889  0.42857143
  0.55555556  0.88888889  0.57142857
  0.55555556  0.88888889  0.71428571
  0.55555556  0.88888889  0.85714286
  0.66666667  0.00000000  0.00000000
  0.66666667  0.00000000  0.14285714
  0.66666667  0.00000000  0.28571429
  0.66666667  0.00000000  0.42857143
  0.66666667  0.00000000  0.57142857
  0.66666667  0.00000000  0.71428571
  0.66666667  0.00000000  0.85714286
  0.66666667  0.11111111  0.00000000
  0.66666667  0.11111111  0.14285714
  0.66666667  0.11111111  0.28571429
  0.66666667  0.11111111  0.42857143
  0.66666667  0.11111111  0.57142857
  0.66666667  0.11111111  0.71428571
  0.66666667  0.11111111  0.85714286
  0.66666667  0.22222222  0.00000000
  0.66666667  0.22222222  0.14285714
  0.66666667  0.22222222  0.28571429
  0.66666667  0.22222222  0.42857143
  0.66666667  0.22222222  0.57142857
  0.66666667  0.22222222  0.71428571
  0.66666667  0.22222222  0.85714286
  0.66666667  0.33333333  0.00000000
  0.66666667  0.33333333  0.14285714
  0.66666667  0.33333333  0.28571429
  0.66666667  0.33333333  0.42857143
  0.66666667  0.33333333  0.57142857
  0.66666667  0.33333333  0.71428571
  0.66666667  0.33333333  0.85714286
  0.66666667  0.44444444  0.00000000
  0.66666667  0.44444444  0.14285714
  0.66666667  0.44444444  0.28571429
  0.66666667  0.44444444  0.42857143
  0.66666667  0.44444444  0.57142857
  0.66666667  0.44444444  0.71428571
  0.66666667  0.44444444  0.85714286
  0.66666667  0.55555556  0.00000000
  0.66666667  0.55555556  0.14285714
  0.66666667  0.55555556  0.28571429
  0.66666667  0.55555556  0.42857143
  0.66666667  0.55555556  0.57142857
  0.66666667  0.55555556  0.71428571
  0.66666667  0.55555556  0.85714286
  0.66666667  0.66666667  0.00000000
  0.66666667  0.66666667  0.14285714
  0.66666667  0.66666667  0.28571429
  0.66666667  0.66666667  0.42857143
  0.66666667  0.66666667  0.57142857
  0.66666667  0.66666667  0.71428571
  0.66666667  0.66666667  0.85714286
  0.66666667  0.77777778  0.00000000
  0.66666667  0.77777778  0.14285714
  0.66666667  0.77777778  0.28571429
  0.66666667  0.77777778  0.42857143
  0.66666667  0.77777778  0.57142857
  0.66666667  0.77777778  0.71428571
  0.66666667  0.77777778  0.85714286
  0.66666667  0.88888889  0.00000000
  0.66666667  0.88888889  0.14285714
  0.66666667  0.88888889  0.28571429
  0.66666667  0.88888889  0.42857143
  0.66666667  0.88888889  0.57142857
  0.66666667  0.88888889  0.71428571
  0.66666667  0.88888889  0.85714286
  0.77777778  0.00000000  0.00000000
  0.77777778  0.00000000  0.14285714
  0.77777778  0.00000000  0.28571429
  0.77777778  0.00000000  0.42857143
  0.77777778  0.00000000  0.57142857
  0.77777778  0.00000000  0.71428571
  0.77777778  0.00000000  0.85714286
  0.77777778  0.11111111  0.00000000
  0.77777778  0.11111111  0.14285714
  0.77777778  0.11111111  0.28571429
  0.77777778  0.11111111  0.42857143
  0.77777778  0.11111111  0.57142857
  0.77777778  0.11111111  0.71428571
  0.77777778  0.11111111  0.85714286
  0.77777778  0.22222222  0.00000000
  0.77777778  0.22222222  0.14285714
  0.77777778  0.22222222  0.28571429
  0.77777778  0.22222222  0.42857143
  0.77777778  0.22222222  0.57142857
  0.77777778  0.22222222  0.71428571
  0.77777778  0.22222222  0.85714286
  0.77777778  0.33333333  0.00000000
  0.77777778  0.33333333  0.14285714
  0.77777778  0.33333333  0.28571429
  0.77777778  0.33333333  0.42857143
  0.77777778  0.33333333  0.57142857
  0.77777778  0.33333333  0.71428571
  0.77777778  0.33333333  0.85714286
  0.77777778  0.44444444  0.00000000
  0.77777778  0.44444444  0.14285714
  0.77777778  0.44444444  0.28571429
  0.77777778  0.44444444  0.42857143
  0.77777778  0.44444444  0.57142857
  0.77777778  0.44444444  0.71428571
  0.77777778  0.44444444  0.85714286
  0.77777778  0.55555556  0.00000000
  0.77777778  0.55555556  0.14285714
  0.77777778  0.55555556  0.28571429
  0.77777778  0.55555556  0.42857143
  0.77777778  0.55555556  0.57142857
  0.77777778  0.55555556  0.71428571
  0.77777778  0.55555556  0.85714286
  0.77777778  0.66666667  0.00000000
  0.77777778  0.66666667  0.14285714
  0.77777778  0.66666667  0.28571429
  0.77777778  0.66666667  0.42857143
  0.77777778  0.66666667  0.57142857
  0.77777778  0.66666667  0.71428571
  0.77777778  0.66666667  0.85714286
  0.77777778  0.77777778  0.00000000
  0.77777778  0.77777778  0.14285714
  0.77777778  0.77777778  0.28571429
  0.77777778  0.77777778  0.42857143
  0.77777778  0.77777778  0.57142857
  0.77777778  0.77777778  0.71428571
  0.77777778  0.77777778  0.85714286
  0.77777778  0.88888889  0.00000000
  0.77777778  0.88888889  0.14285714
  0.77777778  0.88888889  0.28571429
  0.77777778  0.88888889  0.42857143
  0.77777778  0.88888889  0.57142857
  0.77777778  0.88888889  0.71428571
  0.77777778  0.88888889  0.85714286
  0.88888889  0.00000000  0.00000000
  0.88888889  0.00000000  0.14285714
  0.88888889  0.00000000  0.28571429
  0.88888889  0.00000000  0.42857143
  0.88888889  0.00000000  0.57142857
  0.88888889  0.00000000  0.71428571
  0.88888889  0.00000000  0.85714286
  0.88888889  0.11111111  0.00000000
  0.88888889  0.11111111  0.14285714
  0.88888889  0.11111111  0.28571429
  0.88888889  0.11111111  0.42857143
  0.88888889  0.11111111  0.57142857
  0.88888889  0.11111111  0.71428571
  0.88888889  0.11111111  0.85714286
  0.88888889  0.22222222  0.00000000
  0.88888889  0.22222222  0.14285714
  0.88888889  0.22222222  0.28571429
  0.88888889  0.22222222  0.42857143
  0.88888889  0.22222222  0.57142857
  0.88888889  0.22222222  0.71428571
  0.88888889  0.22222222  0.85714286
  0.88888889  0.33333333  0.00000000
  0.88888889  0.33333333  0.14285714
  0.88888889  0.33333333  0.28571429
  0.88888889  0.33333333  0.42857143
  0.88888889  0.33333333  0.57142857
  0.88888889  0.33333333  0.71428571
  0.88888889  0.33333333  0.85714286
  0.88888889  0.44444444  0.00000000
  0.88888889  0.44444444  0.14285714
  0.88888889  0.44444444  0.28571429
  0.88888889  0.44444444  0.42857143
  0.88888889  0.44444444  0.57142857
  0.88888889  0.44444444  0.71428571
  0.88888889  0.44444444  0.85714286
  0.88888889  0.55555556  0.00000000
  0.88888889  0.55555556  0.14285714
  0.88888889  0.55555556  0.28571429
  0.88888889  0.55555556  0.42857143
  0.88888889  0.55555556  0.57142857
  0.88888889  0.55555556  0.71428571
  0.88888889  0.55555556  0.85714286
  0.88888889  0.66666667  0.00000000
  0.88888889  0.66666667  0.14285714
  0.88888889  0.66666667  0.28571429
  0.88888889  0.66666667  0.42857143
  0.88888889  0.66666667  0.57142857
  0.88888889  0.66666667  0.71428571
  0.88888889  0.66666667  0.85714286
  0.88888889  0.77777778  0.00000000
  0.88888889  0.77777778  0.14285714
  0.88888889  0.77777778  0.28571429
  0.88888889  0.77777778  0.42857143
  0.88888889  0.77777778  0.57142857
  0.88888889  0.77777778  0.71428571
  0.88888889  0.77777778  0.85714286
  0.88888889  0.88888889  0.00000000
  0.88888889  0.88888889  0.14285714
  0.88888889  0.88888889  0.28571429
  0.88888889  0.88888889  0.42857143
  0.88888889  0.88888889  0.57142857
  0.88888889  0.88888889  0.71428571
  0.88888889  0.88888889  0.85714286
end kpoints
