&CONTROL
  calculation = 'scf'
  restart_mode       = 'restart'
  wf_collect         = .true.
  etot_conv_thr =   2.0000000000d-04
  forc_conv_thr =   1.0000000000d-04
  outdir = './out/'
  prefix = 'smo'
  pseudo_dir = '../pseudo/'
  tprnfor = .true.
  tstress = .true.
  verbosity = 'high'
/
&SYSTEM
  degauss =   1.5000000000d-03
  ecutrho =   4.0000000000d+02
  ecutwfc =   5.0000000000d+01
  ibrav = 0
  nat = 20
  ntyp = 3
  occupations = 'smearing'
  smearing = 'f-d'
  dmft = .true.
  nosym = .true.
  dmft_prefix        = 'smo'
/
&ELECTRONS
   electron_maxstep   = 1
   conv_thr           = 1.0d-15
   mixing_beta        = 0.3
   mixing_mode        = 'local-TF'
   startingpot        = 'file'
   startingwfc        = 'file'
/
ATOMIC_SPECIES
Mo     95.96 Mo_ONCV_PBE-1.0.oncvpsp.upf
O      15.9994 O.pbe-n-kjpaw_psl.0.1.UPF
Sr     87.62 Sr_pbe_v1.uspp.F.UPF
ATOMIC_POSITIONS crystal
Sr           0.9972128030       0.4995495980       0.2500000000
Sr           0.0027872000       0.5004503970       0.7500000000
Sr           0.5027871970       0.9995496030       0.7500000000
Sr           0.4972127970       0.0004504000       0.2500000000
Mo           0.0000000000       0.0000000000       0.0000000000
Mo           0.0000000000       0.0000000000       0.5000000000
Mo           0.5000000000       0.5000000000       0.5000000000
Mo           0.5000000000       0.5000000000       0.0000000000
O            0.2553254010       0.7553156020       0.9818676110
O            0.7446745990       0.2446844010       0.0181324000
O            0.7553254010       0.7446843980       0.5181323890
O            0.2446745990       0.2553156020       0.4818676110
O            0.7446745990       0.2446844010       0.4818676110
O            0.2553254010       0.7553156020       0.5181323890
O            0.2446745990       0.2553156020       0.0181324000
O            0.7553254010       0.7446843980       0.9818676110
O            0.0005412000       0.9640184040       0.2500000000
O            0.9994588020       0.0359815990       0.7500000000
O            0.4994588020       0.4640184100       0.7500000000
O            0.5005411980       0.5359815960       0.2500000000
CELL_PARAMETERS angstrom
      5.6089601520       0.0000000000       0.0000000000
      0.0000000000       5.6247601510       0.0000000000
      0.0000000000       0.0000000000       7.9310002330
K_POINTS crystal
567
  0.00000000  0.00000000  0.00000000  1.763668e-03
  0.00000000  0.00000000  0.14285714  1.763668e-03
  0.00000000  0.00000000  0.28571429  1.763668e-03
  0.00000000  0.00000000  0.42857143  1.763668e-03
  0.00000000  0.00000000  0.57142857  1.763668e-03
  0.00000000  0.00000000  0.71428571  1.763668e-03
  0.00000000  0.00000000  0.85714286  1.763668e-03
  0.00000000  0.11111111  0.00000000  1.763668e-03
  0.00000000  0.11111111  0.14285714  1.763668e-03
  0.00000000  0.11111111  0.28571429  1.763668e-03
  0.00000000  0.11111111  0.42857143  1.763668e-03
  0.00000000  0.11111111  0.57142857  1.763668e-03
  0.00000000  0.11111111  0.71428571  1.763668e-03
  0.00000000  0.11111111  0.85714286  1.763668e-03
  0.00000000  0.22222222  0.00000000  1.763668e-03
  0.00000000  0.22222222  0.14285714  1.763668e-03
  0.00000000  0.22222222  0.28571429  1.763668e-03
  0.00000000  0.22222222  0.42857143  1.763668e-03
  0.00000000  0.22222222  0.57142857  1.763668e-03
  0.00000000  0.22222222  0.71428571  1.763668e-03
  0.00000000  0.22222222  0.85714286  1.763668e-03
  0.00000000  0.33333333  0.00000000  1.763668e-03
  0.00000000  0.33333333  0.14285714  1.763668e-03
  0.00000000  0.33333333  0.28571429  1.763668e-03
  0.00000000  0.33333333  0.42857143  1.763668e-03
  0.00000000  0.33333333  0.57142857  1.763668e-03
  0.00000000  0.33333333  0.71428571  1.763668e-03
  0.00000000  0.33333333  0.85714286  1.763668e-03
  0.00000000  0.44444444  0.00000000  1.763668e-03
  0.00000000  0.44444444  0.14285714  1.763668e-03
  0.00000000  0.44444444  0.28571429  1.763668e-03
  0.00000000  0.44444444  0.42857143  1.763668e-03
  0.00000000  0.44444444  0.57142857  1.763668e-03
  0.00000000  0.44444444  0.71428571  1.763668e-03
  0.00000000  0.44444444  0.85714286  1.763668e-03
  0.00000000  0.55555556  0.00000000  1.763668e-03
  0.00000000  0.55555556  0.14285714  1.763668e-03
  0.00000000  0.55555556  0.28571429  1.763668e-03
  0.00000000  0.55555556  0.42857143  1.763668e-03
  0.00000000  0.55555556  0.57142857  1.763668e-03
  0.00000000  0.55555556  0.71428571  1.763668e-03
  0.00000000  0.55555556  0.85714286  1.763668e-03
  0.00000000  0.66666667  0.00000000  1.763668e-03
  0.00000000  0.66666667  0.14285714  1.763668e-03
  0.00000000  0.66666667  0.28571429  1.763668e-03
  0.00000000  0.66666667  0.42857143  1.763668e-03
  0.00000000  0.66666667  0.57142857  1.763668e-03
  0.00000000  0.66666667  0.71428571  1.763668e-03
  0.00000000  0.66666667  0.85714286  1.763668e-03
  0.00000000  0.77777778  0.00000000  1.763668e-03
  0.00000000  0.77777778  0.14285714  1.763668e-03
  0.00000000  0.77777778  0.28571429  1.763668e-03
  0.00000000  0.77777778  0.42857143  1.763668e-03
  0.00000000  0.77777778  0.57142857  1.763668e-03
  0.00000000  0.77777778  0.71428571  1.763668e-03
  0.00000000  0.77777778  0.85714286  1.763668e-03
  0.00000000  0.88888889  0.00000000  1.763668e-03
  0.00000000  0.88888889  0.14285714  1.763668e-03
  0.00000000  0.88888889  0.28571429  1.763668e-03
  0.00000000  0.88888889  0.42857143  1.763668e-03
  0.00000000  0.88888889  0.57142857  1.763668e-03
  0.00000000  0.88888889  0.71428571  1.763668e-03
  0.00000000  0.88888889  0.85714286  1.763668e-03
  0.11111111  0.00000000  0.00000000  1.763668e-03
  0.11111111  0.00000000  0.14285714  1.763668e-03
  0.11111111  0.00000000  0.28571429  1.763668e-03
  0.11111111  0.00000000  0.42857143  1.763668e-03
  0.11111111  0.00000000  0.57142857  1.763668e-03
  0.11111111  0.00000000  0.71428571  1.763668e-03
  0.11111111  0.00000000  0.85714286  1.763668e-03
  0.11111111  0.11111111  0.00000000  1.763668e-03
  0.11111111  0.11111111  0.14285714  1.763668e-03
  0.11111111  0.11111111  0.28571429  1.763668e-03
  0.11111111  0.11111111  0.42857143  1.763668e-03
  0.11111111  0.11111111  0.57142857  1.763668e-03
  0.11111111  0.11111111  0.71428571  1.763668e-03
  0.11111111  0.11111111  0.85714286  1.763668e-03
  0.11111111  0.22222222  0.00000000  1.763668e-03
  0.11111111  0.22222222  0.14285714  1.763668e-03
  0.11111111  0.22222222  0.28571429  1.763668e-03
  0.11111111  0.22222222  0.42857143  1.763668e-03
  0.11111111  0.22222222  0.57142857  1.763668e-03
  0.11111111  0.22222222  0.71428571  1.763668e-03
  0.11111111  0.22222222  0.85714286  1.763668e-03
  0.11111111  0.33333333  0.00000000  1.763668e-03
  0.11111111  0.33333333  0.14285714  1.763668e-03
  0.11111111  0.33333333  0.28571429  1.763668e-03
  0.11111111  0.33333333  0.42857143  1.763668e-03
  0.11111111  0.33333333  0.57142857  1.763668e-03
  0.11111111  0.33333333  0.71428571  1.763668e-03
  0.11111111  0.33333333  0.85714286  1.763668e-03
  0.11111111  0.44444444  0.00000000  1.763668e-03
  0.11111111  0.44444444  0.14285714  1.763668e-03
  0.11111111  0.44444444  0.28571429  1.763668e-03
  0.11111111  0.44444444  0.42857143  1.763668e-03
  0.11111111  0.44444444  0.57142857  1.763668e-03
  0.11111111  0.44444444  0.71428571  1.763668e-03
  0.11111111  0.44444444  0.85714286  1.763668e-03
  0.11111111  0.55555556  0.00000000  1.763668e-03
  0.11111111  0.55555556  0.14285714  1.763668e-03
  0.11111111  0.55555556  0.28571429  1.763668e-03
  0.11111111  0.55555556  0.42857143  1.763668e-03
  0.11111111  0.55555556  0.57142857  1.763668e-03
  0.11111111  0.55555556  0.71428571  1.763668e-03
  0.11111111  0.55555556  0.85714286  1.763668e-03
  0.11111111  0.66666667  0.00000000  1.763668e-03
  0.11111111  0.66666667  0.14285714  1.763668e-03
  0.11111111  0.66666667  0.28571429  1.763668e-03
  0.11111111  0.66666667  0.42857143  1.763668e-03
  0.11111111  0.66666667  0.57142857  1.763668e-03
  0.11111111  0.66666667  0.71428571  1.763668e-03
  0.11111111  0.66666667  0.85714286  1.763668e-03
  0.11111111  0.77777778  0.00000000  1.763668e-03
  0.11111111  0.77777778  0.14285714  1.763668e-03
  0.11111111  0.77777778  0.28571429  1.763668e-03
  0.11111111  0.77777778  0.42857143  1.763668e-03
  0.11111111  0.77777778  0.57142857  1.763668e-03
  0.11111111  0.77777778  0.71428571  1.763668e-03
  0.11111111  0.77777778  0.85714286  1.763668e-03
  0.11111111  0.88888889  0.00000000  1.763668e-03
  0.11111111  0.88888889  0.14285714  1.763668e-03
  0.11111111  0.88888889  0.28571429  1.763668e-03
  0.11111111  0.88888889  0.42857143  1.763668e-03
  0.11111111  0.88888889  0.57142857  1.763668e-03
  0.11111111  0.88888889  0.71428571  1.763668e-03
  0.11111111  0.88888889  0.85714286  1.763668e-03
  0.22222222  0.00000000  0.00000000  1.763668e-03
  0.22222222  0.00000000  0.14285714  1.763668e-03
  0.22222222  0.00000000  0.28571429  1.763668e-03
  0.22222222  0.00000000  0.42857143  1.763668e-03
  0.22222222  0.00000000  0.57142857  1.763668e-03
  0.22222222  0.00000000  0.71428571  1.763668e-03
  0.22222222  0.00000000  0.85714286  1.763668e-03
  0.22222222  0.11111111  0.00000000  1.763668e-03
  0.22222222  0.11111111  0.14285714  1.763668e-03
  0.22222222  0.11111111  0.28571429  1.763668e-03
  0.22222222  0.11111111  0.42857143  1.763668e-03
  0.22222222  0.11111111  0.57142857  1.763668e-03
  0.22222222  0.11111111  0.71428571  1.763668e-03
  0.22222222  0.11111111  0.85714286  1.763668e-03
  0.22222222  0.22222222  0.00000000  1.763668e-03
  0.22222222  0.22222222  0.14285714  1.763668e-03
  0.22222222  0.22222222  0.28571429  1.763668e-03
  0.22222222  0.22222222  0.42857143  1.763668e-03
  0.22222222  0.22222222  0.57142857  1.763668e-03
  0.22222222  0.22222222  0.71428571  1.763668e-03
  0.22222222  0.22222222  0.85714286  1.763668e-03
  0.22222222  0.33333333  0.00000000  1.763668e-03
  0.22222222  0.33333333  0.14285714  1.763668e-03
  0.22222222  0.33333333  0.28571429  1.763668e-03
  0.22222222  0.33333333  0.42857143  1.763668e-03
  0.22222222  0.33333333  0.57142857  1.763668e-03
  0.22222222  0.33333333  0.71428571  1.763668e-03
  0.22222222  0.33333333  0.85714286  1.763668e-03
  0.22222222  0.44444444  0.00000000  1.763668e-03
  0.22222222  0.44444444  0.14285714  1.763668e-03
  0.22222222  0.44444444  0.28571429  1.763668e-03
  0.22222222  0.44444444  0.42857143  1.763668e-03
  0.22222222  0.44444444  0.57142857  1.763668e-03
  0.22222222  0.44444444  0.71428571  1.763668e-03
  0.22222222  0.44444444  0.85714286  1.763668e-03
  0.22222222  0.55555556  0.00000000  1.763668e-03
  0.22222222  0.55555556  0.14285714  1.763668e-03
  0.22222222  0.55555556  0.28571429  1.763668e-03
  0.22222222  0.55555556  0.42857143  1.763668e-03
  0.22222222  0.55555556  0.57142857  1.763668e-03
  0.22222222  0.55555556  0.71428571  1.763668e-03
  0.22222222  0.55555556  0.85714286  1.763668e-03
  0.22222222  0.66666667  0.00000000  1.763668e-03
  0.22222222  0.66666667  0.14285714  1.763668e-03
  0.22222222  0.66666667  0.28571429  1.763668e-03
  0.22222222  0.66666667  0.42857143  1.763668e-03
  0.22222222  0.66666667  0.57142857  1.763668e-03
  0.22222222  0.66666667  0.71428571  1.763668e-03
  0.22222222  0.66666667  0.85714286  1.763668e-03
  0.22222222  0.77777778  0.00000000  1.763668e-03
  0.22222222  0.77777778  0.14285714  1.763668e-03
  0.22222222  0.77777778  0.28571429  1.763668e-03
  0.22222222  0.77777778  0.42857143  1.763668e-03
  0.22222222  0.77777778  0.57142857  1.763668e-03
  0.22222222  0.77777778  0.71428571  1.763668e-03
  0.22222222  0.77777778  0.85714286  1.763668e-03
  0.22222222  0.88888889  0.00000000  1.763668e-03
  0.22222222  0.88888889  0.14285714  1.763668e-03
  0.22222222  0.88888889  0.28571429  1.763668e-03
  0.22222222  0.88888889  0.42857143  1.763668e-03
  0.22222222  0.88888889  0.57142857  1.763668e-03
  0.22222222  0.88888889  0.71428571  1.763668e-03
  0.22222222  0.88888889  0.85714286  1.763668e-03
  0.33333333  0.00000000  0.00000000  1.763668e-03
  0.33333333  0.00000000  0.14285714  1.763668e-03
  0.33333333  0.00000000  0.28571429  1.763668e-03
  0.33333333  0.00000000  0.42857143  1.763668e-03
  0.33333333  0.00000000  0.57142857  1.763668e-03
  0.33333333  0.00000000  0.71428571  1.763668e-03
  0.33333333  0.00000000  0.85714286  1.763668e-03
  0.33333333  0.11111111  0.00000000  1.763668e-03
  0.33333333  0.11111111  0.14285714  1.763668e-03
  0.33333333  0.11111111  0.28571429  1.763668e-03
  0.33333333  0.11111111  0.42857143  1.763668e-03
  0.33333333  0.11111111  0.57142857  1.763668e-03
  0.33333333  0.11111111  0.71428571  1.763668e-03
  0.33333333  0.11111111  0.85714286  1.763668e-03
  0.33333333  0.22222222  0.00000000  1.763668e-03
  0.33333333  0.22222222  0.14285714  1.763668e-03
  0.33333333  0.22222222  0.28571429  1.763668e-03
  0.33333333  0.22222222  0.42857143  1.763668e-03
  0.33333333  0.22222222  0.57142857  1.763668e-03
  0.33333333  0.22222222  0.71428571  1.763668e-03
  0.33333333  0.22222222  0.85714286  1.763668e-03
  0.33333333  0.33333333  0.00000000  1.763668e-03
  0.33333333  0.33333333  0.14285714  1.763668e-03
  0.33333333  0.33333333  0.28571429  1.763668e-03
  0.33333333  0.33333333  0.42857143  1.763668e-03
  0.33333333  0.33333333  0.57142857  1.763668e-03
  0.33333333  0.33333333  0.71428571  1.763668e-03
  0.33333333  0.33333333  0.85714286  1.763668e-03
  0.33333333  0.44444444  0.00000000  1.763668e-03
  0.33333333  0.44444444  0.14285714  1.763668e-03
  0.33333333  0.44444444  0.28571429  1.763668e-03
  0.33333333  0.44444444  0.42857143  1.763668e-03
  0.33333333  0.44444444  0.57142857  1.763668e-03
  0.33333333  0.44444444  0.71428571  1.763668e-03
  0.33333333  0.44444444  0.85714286  1.763668e-03
  0.33333333  0.55555556  0.00000000  1.763668e-03
  0.33333333  0.55555556  0.14285714  1.763668e-03
  0.33333333  0.55555556  0.28571429  1.763668e-03
  0.33333333  0.55555556  0.42857143  1.763668e-03
  0.33333333  0.55555556  0.57142857  1.763668e-03
  0.33333333  0.55555556  0.71428571  1.763668e-03
  0.33333333  0.55555556  0.85714286  1.763668e-03
  0.33333333  0.66666667  0.00000000  1.763668e-03
  0.33333333  0.66666667  0.14285714  1.763668e-03
  0.33333333  0.66666667  0.28571429  1.763668e-03
  0.33333333  0.66666667  0.42857143  1.763668e-03
  0.33333333  0.66666667  0.57142857  1.763668e-03
  0.33333333  0.66666667  0.71428571  1.763668e-03
  0.33333333  0.66666667  0.85714286  1.763668e-03
  0.33333333  0.77777778  0.00000000  1.763668e-03
  0.33333333  0.77777778  0.14285714  1.763668e-03
  0.33333333  0.77777778  0.28571429  1.763668e-03
  0.33333333  0.77777778  0.42857143  1.763668e-03
  0.33333333  0.77777778  0.57142857  1.763668e-03
  0.33333333  0.77777778  0.71428571  1.763668e-03
  0.33333333  0.77777778  0.85714286  1.763668e-03
  0.33333333  0.88888889  0.00000000  1.763668e-03
  0.33333333  0.88888889  0.14285714  1.763668e-03
  0.33333333  0.88888889  0.28571429  1.763668e-03
  0.33333333  0.88888889  0.42857143  1.763668e-03
  0.33333333  0.88888889  0.57142857  1.763668e-03
  0.33333333  0.88888889  0.71428571  1.763668e-03
  0.33333333  0.88888889  0.85714286  1.763668e-03
  0.44444444  0.00000000  0.00000000  1.763668e-03
  0.44444444  0.00000000  0.14285714  1.763668e-03
  0.44444444  0.00000000  0.28571429  1.763668e-03
  0.44444444  0.00000000  0.42857143  1.763668e-03
  0.44444444  0.00000000  0.57142857  1.763668e-03
  0.44444444  0.00000000  0.71428571  1.763668e-03
  0.44444444  0.00000000  0.85714286  1.763668e-03
  0.44444444  0.11111111  0.00000000  1.763668e-03
  0.44444444  0.11111111  0.14285714  1.763668e-03
  0.44444444  0.11111111  0.28571429  1.763668e-03
  0.44444444  0.11111111  0.42857143  1.763668e-03
  0.44444444  0.11111111  0.57142857  1.763668e-03
  0.44444444  0.11111111  0.71428571  1.763668e-03
  0.44444444  0.11111111  0.85714286  1.763668e-03
  0.44444444  0.22222222  0.00000000  1.763668e-03
  0.44444444  0.22222222  0.14285714  1.763668e-03
  0.44444444  0.22222222  0.28571429  1.763668e-03
  0.44444444  0.22222222  0.42857143  1.763668e-03
  0.44444444  0.22222222  0.57142857  1.763668e-03
  0.44444444  0.22222222  0.71428571  1.763668e-03
  0.44444444  0.22222222  0.85714286  1.763668e-03
  0.44444444  0.33333333  0.00000000  1.763668e-03
  0.44444444  0.33333333  0.14285714  1.763668e-03
  0.44444444  0.33333333  0.28571429  1.763668e-03
  0.44444444  0.33333333  0.42857143  1.763668e-03
  0.44444444  0.33333333  0.57142857  1.763668e-03
  0.44444444  0.33333333  0.71428571  1.763668e-03
  0.44444444  0.33333333  0.85714286  1.763668e-03
  0.44444444  0.44444444  0.00000000  1.763668e-03
  0.44444444  0.44444444  0.14285714  1.763668e-03
  0.44444444  0.44444444  0.28571429  1.763668e-03
  0.44444444  0.44444444  0.42857143  1.763668e-03
  0.44444444  0.44444444  0.57142857  1.763668e-03
  0.44444444  0.44444444  0.71428571  1.763668e-03
  0.44444444  0.44444444  0.85714286  1.763668e-03
  0.44444444  0.55555556  0.00000000  1.763668e-03
  0.44444444  0.55555556  0.14285714  1.763668e-03
  0.44444444  0.55555556  0.28571429  1.763668e-03
  0.44444444  0.55555556  0.42857143  1.763668e-03
  0.44444444  0.55555556  0.57142857  1.763668e-03
  0.44444444  0.55555556  0.71428571  1.763668e-03
  0.44444444  0.55555556  0.85714286  1.763668e-03
  0.44444444  0.66666667  0.00000000  1.763668e-03
  0.44444444  0.66666667  0.14285714  1.763668e-03
  0.44444444  0.66666667  0.28571429  1.763668e-03
  0.44444444  0.66666667  0.42857143  1.763668e-03
  0.44444444  0.66666667  0.57142857  1.763668e-03
  0.44444444  0.66666667  0.71428571  1.763668e-03
  0.44444444  0.66666667  0.85714286  1.763668e-03
  0.44444444  0.77777778  0.00000000  1.763668e-03
  0.44444444  0.77777778  0.14285714  1.763668e-03
  0.44444444  0.77777778  0.28571429  1.763668e-03
  0.44444444  0.77777778  0.42857143  1.763668e-03
  0.44444444  0.77777778  0.57142857  1.763668e-03
  0.44444444  0.77777778  0.71428571  1.763668e-03
  0.44444444  0.77777778  0.85714286  1.763668e-03
  0.44444444  0.88888889  0.00000000  1.763668e-03
  0.44444444  0.88888889  0.14285714  1.763668e-03
  0.44444444  0.88888889  0.28571429  1.763668e-03
  0.44444444  0.88888889  0.42857143  1.763668e-03
  0.44444444  0.88888889  0.57142857  1.763668e-03
  0.44444444  0.88888889  0.71428571  1.763668e-03
  0.44444444  0.88888889  0.85714286  1.763668e-03
  0.55555556  0.00000000  0.00000000  1.763668e-03
  0.55555556  0.00000000  0.14285714  1.763668e-03
  0.55555556  0.00000000  0.28571429  1.763668e-03
  0.55555556  0.00000000  0.42857143  1.763668e-03
  0.55555556  0.00000000  0.57142857  1.763668e-03
  0.55555556  0.00000000  0.71428571  1.763668e-03
  0.55555556  0.00000000  0.85714286  1.763668e-03
  0.55555556  0.11111111  0.00000000  1.763668e-03
  0.55555556  0.11111111  0.14285714  1.763668e-03
  0.55555556  0.11111111  0.28571429  1.763668e-03
  0.55555556  0.11111111  0.42857143  1.763668e-03
  0.55555556  0.11111111  0.57142857  1.763668e-03
  0.55555556  0.11111111  0.71428571  1.763668e-03
  0.55555556  0.11111111  0.85714286  1.763668e-03
  0.55555556  0.22222222  0.00000000  1.763668e-03
  0.55555556  0.22222222  0.14285714  1.763668e-03
  0.55555556  0.22222222  0.28571429  1.763668e-03
  0.55555556  0.22222222  0.42857143  1.763668e-03
  0.55555556  0.22222222  0.57142857  1.763668e-03
  0.55555556  0.22222222  0.71428571  1.763668e-03
  0.55555556  0.22222222  0.85714286  1.763668e-03
  0.55555556  0.33333333  0.00000000  1.763668e-03
  0.55555556  0.33333333  0.14285714  1.763668e-03
  0.55555556  0.33333333  0.28571429  1.763668e-03
  0.55555556  0.33333333  0.42857143  1.763668e-03
  0.55555556  0.33333333  0.57142857  1.763668e-03
  0.55555556  0.33333333  0.71428571  1.763668e-03
  0.55555556  0.33333333  0.85714286  1.763668e-03
  0.55555556  0.44444444  0.00000000  1.763668e-03
  0.55555556  0.44444444  0.14285714  1.763668e-03
  0.55555556  0.44444444  0.28571429  1.763668e-03
  0.55555556  0.44444444  0.42857143  1.763668e-03
  0.55555556  0.44444444  0.57142857  1.763668e-03
  0.55555556  0.44444444  0.71428571  1.763668e-03
  0.55555556  0.44444444  0.85714286  1.763668e-03
  0.55555556  0.55555556  0.00000000  1.763668e-03
  0.55555556  0.55555556  0.14285714  1.763668e-03
  0.55555556  0.55555556  0.28571429  1.763668e-03
  0.55555556  0.55555556  0.42857143  1.763668e-03
  0.55555556  0.55555556  0.57142857  1.763668e-03
  0.55555556  0.55555556  0.71428571  1.763668e-03
  0.55555556  0.55555556  0.85714286  1.763668e-03
  0.55555556  0.66666667  0.00000000  1.763668e-03
  0.55555556  0.66666667  0.14285714  1.763668e-03
  0.55555556  0.66666667  0.28571429  1.763668e-03
  0.55555556  0.66666667  0.42857143  1.763668e-03
  0.55555556  0.66666667  0.57142857  1.763668e-03
  0.55555556  0.66666667  0.71428571  1.763668e-03
  0.55555556  0.66666667  0.85714286  1.763668e-03
  0.55555556  0.77777778  0.00000000  1.763668e-03
  0.55555556  0.77777778  0.14285714  1.763668e-03
  0.55555556  0.77777778  0.28571429  1.763668e-03
  0.55555556  0.77777778  0.42857143  1.763668e-03
  0.55555556  0.77777778  0.57142857  1.763668e-03
  0.55555556  0.77777778  0.71428571  1.763668e-03
  0.55555556  0.77777778  0.85714286  1.763668e-03
  0.55555556  0.88888889  0.00000000  1.763668e-03
  0.55555556  0.88888889  0.14285714  1.763668e-03
  0.55555556  0.88888889  0.28571429  1.763668e-03
  0.55555556  0.88888889  0.42857143  1.763668e-03
  0.55555556  0.88888889  0.57142857  1.763668e-03
  0.55555556  0.88888889  0.71428571  1.763668e-03
  0.55555556  0.88888889  0.85714286  1.763668e-03
  0.66666667  0.00000000  0.00000000  1.763668e-03
  0.66666667  0.00000000  0.14285714  1.763668e-03
  0.66666667  0.00000000  0.28571429  1.763668e-03
  0.66666667  0.00000000  0.42857143  1.763668e-03
  0.66666667  0.00000000  0.57142857  1.763668e-03
  0.66666667  0.00000000  0.71428571  1.763668e-03
  0.66666667  0.00000000  0.85714286  1.763668e-03
  0.66666667  0.11111111  0.00000000  1.763668e-03
  0.66666667  0.11111111  0.14285714  1.763668e-03
  0.66666667  0.11111111  0.28571429  1.763668e-03
  0.66666667  0.11111111  0.42857143  1.763668e-03
  0.66666667  0.11111111  0.57142857  1.763668e-03
  0.66666667  0.11111111  0.71428571  1.763668e-03
  0.66666667  0.11111111  0.85714286  1.763668e-03
  0.66666667  0.22222222  0.00000000  1.763668e-03
  0.66666667  0.22222222  0.14285714  1.763668e-03
  0.66666667  0.22222222  0.28571429  1.763668e-03
  0.66666667  0.22222222  0.42857143  1.763668e-03
  0.66666667  0.22222222  0.57142857  1.763668e-03
  0.66666667  0.22222222  0.71428571  1.763668e-03
  0.66666667  0.22222222  0.85714286  1.763668e-03
  0.66666667  0.33333333  0.00000000  1.763668e-03
  0.66666667  0.33333333  0.14285714  1.763668e-03
  0.66666667  0.33333333  0.28571429  1.763668e-03
  0.66666667  0.33333333  0.42857143  1.763668e-03
  0.66666667  0.33333333  0.57142857  1.763668e-03
  0.66666667  0.33333333  0.71428571  1.763668e-03
  0.66666667  0.33333333  0.85714286  1.763668e-03
  0.66666667  0.44444444  0.00000000  1.763668e-03
  0.66666667  0.44444444  0.14285714  1.763668e-03
  0.66666667  0.44444444  0.28571429  1.763668e-03
  0.66666667  0.44444444  0.42857143  1.763668e-03
  0.66666667  0.44444444  0.57142857  1.763668e-03
  0.66666667  0.44444444  0.71428571  1.763668e-03
  0.66666667  0.44444444  0.85714286  1.763668e-03
  0.66666667  0.55555556  0.00000000  1.763668e-03
  0.66666667  0.55555556  0.14285714  1.763668e-03
  0.66666667  0.55555556  0.28571429  1.763668e-03
  0.66666667  0.55555556  0.42857143  1.763668e-03
  0.66666667  0.55555556  0.57142857  1.763668e-03
  0.66666667  0.55555556  0.71428571  1.763668e-03
  0.66666667  0.55555556  0.85714286  1.763668e-03
  0.66666667  0.66666667  0.00000000  1.763668e-03
  0.66666667  0.66666667  0.14285714  1.763668e-03
  0.66666667  0.66666667  0.28571429  1.763668e-03
  0.66666667  0.66666667  0.42857143  1.763668e-03
  0.66666667  0.66666667  0.57142857  1.763668e-03
  0.66666667  0.66666667  0.71428571  1.763668e-03
  0.66666667  0.66666667  0.85714286  1.763668e-03
  0.66666667  0.77777778  0.00000000  1.763668e-03
  0.66666667  0.77777778  0.14285714  1.763668e-03
  0.66666667  0.77777778  0.28571429  1.763668e-03
  0.66666667  0.77777778  0.42857143  1.763668e-03
  0.66666667  0.77777778  0.57142857  1.763668e-03
  0.66666667  0.77777778  0.71428571  1.763668e-03
  0.66666667  0.77777778  0.85714286  1.763668e-03
  0.66666667  0.88888889  0.00000000  1.763668e-03
  0.66666667  0.88888889  0.14285714  1.763668e-03
  0.66666667  0.88888889  0.28571429  1.763668e-03
  0.66666667  0.88888889  0.42857143  1.763668e-03
  0.66666667  0.88888889  0.57142857  1.763668e-03
  0.66666667  0.88888889  0.71428571  1.763668e-03
  0.66666667  0.88888889  0.85714286  1.763668e-03
  0.77777778  0.00000000  0.00000000  1.763668e-03
  0.77777778  0.00000000  0.14285714  1.763668e-03
  0.77777778  0.00000000  0.28571429  1.763668e-03
  0.77777778  0.00000000  0.42857143  1.763668e-03
  0.77777778  0.00000000  0.57142857  1.763668e-03
  0.77777778  0.00000000  0.71428571  1.763668e-03
  0.77777778  0.00000000  0.85714286  1.763668e-03
  0.77777778  0.11111111  0.00000000  1.763668e-03
  0.77777778  0.11111111  0.14285714  1.763668e-03
  0.77777778  0.11111111  0.28571429  1.763668e-03
  0.77777778  0.11111111  0.42857143  1.763668e-03
  0.77777778  0.11111111  0.57142857  1.763668e-03
  0.77777778  0.11111111  0.71428571  1.763668e-03
  0.77777778  0.11111111  0.85714286  1.763668e-03
  0.77777778  0.22222222  0.00000000  1.763668e-03
  0.77777778  0.22222222  0.14285714  1.763668e-03
  0.77777778  0.22222222  0.28571429  1.763668e-03
  0.77777778  0.22222222  0.42857143  1.763668e-03
  0.77777778  0.22222222  0.57142857  1.763668e-03
  0.77777778  0.22222222  0.71428571  1.763668e-03
  0.77777778  0.22222222  0.85714286  1.763668e-03
  0.77777778  0.33333333  0.00000000  1.763668e-03
  0.77777778  0.33333333  0.14285714  1.763668e-03
  0.77777778  0.33333333  0.28571429  1.763668e-03
  0.77777778  0.33333333  0.42857143  1.763668e-03
  0.77777778  0.33333333  0.57142857  1.763668e-03
  0.77777778  0.33333333  0.71428571  1.763668e-03
  0.77777778  0.33333333  0.85714286  1.763668e-03
  0.77777778  0.44444444  0.00000000  1.763668e-03
  0.77777778  0.44444444  0.14285714  1.763668e-03
  0.77777778  0.44444444  0.28571429  1.763668e-03
  0.77777778  0.44444444  0.42857143  1.763668e-03
  0.77777778  0.44444444  0.57142857  1.763668e-03
  0.77777778  0.44444444  0.71428571  1.763668e-03
  0.77777778  0.44444444  0.85714286  1.763668e-03
  0.77777778  0.55555556  0.00000000  1.763668e-03
  0.77777778  0.55555556  0.14285714  1.763668e-03
  0.77777778  0.55555556  0.28571429  1.763668e-03
  0.77777778  0.55555556  0.42857143  1.763668e-03
  0.77777778  0.55555556  0.57142857  1.763668e-03
  0.77777778  0.55555556  0.71428571  1.763668e-03
  0.77777778  0.55555556  0.85714286  1.763668e-03
  0.77777778  0.66666667  0.00000000  1.763668e-03
  0.77777778  0.66666667  0.14285714  1.763668e-03
  0.77777778  0.66666667  0.28571429  1.763668e-03
  0.77777778  0.66666667  0.42857143  1.763668e-03
  0.77777778  0.66666667  0.57142857  1.763668e-03
  0.77777778  0.66666667  0.71428571  1.763668e-03
  0.77777778  0.66666667  0.85714286  1.763668e-03
  0.77777778  0.77777778  0.00000000  1.763668e-03
  0.77777778  0.77777778  0.14285714  1.763668e-03
  0.77777778  0.77777778  0.28571429  1.763668e-03
  0.77777778  0.77777778  0.42857143  1.763668e-03
  0.77777778  0.77777778  0.57142857  1.763668e-03
  0.77777778  0.77777778  0.71428571  1.763668e-03
  0.77777778  0.77777778  0.85714286  1.763668e-03
  0.77777778  0.88888889  0.00000000  1.763668e-03
  0.77777778  0.88888889  0.14285714  1.763668e-03
  0.77777778  0.88888889  0.28571429  1.763668e-03
  0.77777778  0.88888889  0.42857143  1.763668e-03
  0.77777778  0.88888889  0.57142857  1.763668e-03
  0.77777778  0.88888889  0.71428571  1.763668e-03
  0.77777778  0.88888889  0.85714286  1.763668e-03
  0.88888889  0.00000000  0.00000000  1.763668e-03
  0.88888889  0.00000000  0.14285714  1.763668e-03
  0.88888889  0.00000000  0.28571429  1.763668e-03
  0.88888889  0.00000000  0.42857143  1.763668e-03
  0.88888889  0.00000000  0.57142857  1.763668e-03
  0.88888889  0.00000000  0.71428571  1.763668e-03
  0.88888889  0.00000000  0.85714286  1.763668e-03
  0.88888889  0.11111111  0.00000000  1.763668e-03
  0.88888889  0.11111111  0.14285714  1.763668e-03
  0.88888889  0.11111111  0.28571429  1.763668e-03
  0.88888889  0.11111111  0.42857143  1.763668e-03
  0.88888889  0.11111111  0.57142857  1.763668e-03
  0.88888889  0.11111111  0.71428571  1.763668e-03
  0.88888889  0.11111111  0.85714286  1.763668e-03
  0.88888889  0.22222222  0.00000000  1.763668e-03
  0.88888889  0.22222222  0.14285714  1.763668e-03
  0.88888889  0.22222222  0.28571429  1.763668e-03
  0.88888889  0.22222222  0.42857143  1.763668e-03
  0.88888889  0.22222222  0.57142857  1.763668e-03
  0.88888889  0.22222222  0.71428571  1.763668e-03
  0.88888889  0.22222222  0.85714286  1.763668e-03
  0.88888889  0.33333333  0.00000000  1.763668e-03
  0.88888889  0.33333333  0.14285714  1.763668e-03
  0.88888889  0.33333333  0.28571429  1.763668e-03
  0.88888889  0.33333333  0.42857143  1.763668e-03
  0.88888889  0.33333333  0.57142857  1.763668e-03
  0.88888889  0.33333333  0.71428571  1.763668e-03
  0.88888889  0.33333333  0.85714286  1.763668e-03
  0.88888889  0.44444444  0.00000000  1.763668e-03
  0.88888889  0.44444444  0.14285714  1.763668e-03
  0.88888889  0.44444444  0.28571429  1.763668e-03
  0.88888889  0.44444444  0.42857143  1.763668e-03
  0.88888889  0.44444444  0.57142857  1.763668e-03
  0.88888889  0.44444444  0.71428571  1.763668e-03
  0.88888889  0.44444444  0.85714286  1.763668e-03
  0.88888889  0.55555556  0.00000000  1.763668e-03
  0.88888889  0.55555556  0.14285714  1.763668e-03