&CONTROL
  calculation = 'scf'
  restart_mode       = 'restart'
  wf_collect         = .true.
  outdir = './out/'
  prefix = 'smo'
  pseudo_dir = '../../../pseudo/'
  verbosity = 'high'
/

&SYSTEM
  degauss =   1.5000000000d-03
  ecutrho =   4.0000000000d+02
  ecutwfc =   5.0000000000d+01
  ibrav = 0
  nat = 20
  ntyp = 3
  occupations = 'smearing'
  smearing = 'f-d'
  dmft = .true.
  nosym = .true.
  dmft_prefix        = 'smo'
/

&ELECTRONS
   electron_maxstep   = 1
   conv_thr           = 1.0d-15
   mixing_beta        = 0.3
   mixing_mode        = 'local-TF'
   startingpot        = 'file'
   startingwfc        = 'file'
/

ATOMIC_SPECIES
Sr     87.6200 Sr.pz-spn-kjpaw_psl.1.0.0.UPF
Mo     95.9500 Mo.pz-spn-kjpaw_psl.1.0.0.UPF
O      15.9990 O.pz-n-kjpaw_psl.1.0.0.UPF

ATOMIC_POSITIONS crystal
Sr 0.0000000000 0.5000000000 0.2500000000  
Sr 0.0000000000 0.5000000000 0.7500000000  
Sr 0.5000000000 0.0000000000 0.7500000000  
Sr 0.5000000000 0.0000000000 0.2500000000  
Mo 0.0000000000 0.0000000000 0.0000000000  
Mo 0.0000000000 0.0000000000 0.5000000000  
Mo 0.5000000000 0.5000000000 0.5000000000  
Mo 0.5000000000 0.5000000000 0.0000000000  
O 0.2500000000 0.7500000000 -0.0089060000  
O 0.2500000000 0.2500000000 0.0089060000  
O 0.7500000000 0.2500000000 0.4910940000  
O 0.7500000000 0.7500000000 0.5089060000  
O 0.7500000000 0.2500000000 0.0089060000  
O 0.7500000000 0.7500000000 -0.0089060000  
O 0.2500000000 0.7500000000 0.5089060000  
O 0.2500000000 0.2500000000 0.4910940000  
O 0.0000000000 -0.0178120000 0.2500000000  
O 0.0000000000 0.0178120000 0.7500000000  
O 0.5000000000 0.4821880000 0.7500000000  
O 0.5000000000 0.5178120000 0.2500000000  

CELL_PARAMETERS angstrom
5.61396000000000 0.00000000000000 0.00000000000000
0.00000000000000 5.61396000000000 0.00000000000000
0.00000000000000 0.00000000000000 7.93934000000000

K_POINTS crystal
125
  0.00000000  0.00000000  0.00000000  8.000000e-03
  0.00000000  0.00000000  0.20000000  8.000000e-03
  0.00000000  0.00000000  0.40000000  8.000000e-03
  0.00000000  0.00000000  0.60000000  8.000000e-03
  0.00000000  0.00000000  0.80000000  8.000000e-03
  0.00000000  0.20000000  0.00000000  8.000000e-03
  0.00000000  0.20000000  0.20000000  8.000000e-03
  0.00000000  0.20000000  0.40000000  8.000000e-03
  0.00000000  0.20000000  0.60000000  8.000000e-03
  0.00000000  0.20000000  0.80000000  8.000000e-03
  0.00000000  0.40000000  0.00000000  8.000000e-03
  0.00000000  0.40000000  0.20000000  8.000000e-03
  0.00000000  0.40000000  0.40000000  8.000000e-03
  0.00000000  0.40000000  0.60000000  8.000000e-03
  0.00000000  0.40000000  0.80000000  8.000000e-03
  0.00000000  0.60000000  0.00000000  8.000000e-03
  0.00000000  0.60000000  0.20000000  8.000000e-03
  0.00000000  0.60000000  0.40000000  8.000000e-03
  0.00000000  0.60000000  0.60000000  8.000000e-03
  0.00000000  0.60000000  0.80000000  8.000000e-03
  0.00000000  0.80000000  0.00000000  8.000000e-03
  0.00000000  0.80000000  0.20000000  8.000000e-03
  0.00000000  0.80000000  0.40000000  8.000000e-03
  0.00000000  0.80000000  0.60000000  8.000000e-03
  0.00000000  0.80000000  0.80000000  8.000000e-03
  0.20000000  0.00000000  0.00000000  8.000000e-03
  0.20000000  0.00000000  0.20000000  8.000000e-03
  0.20000000  0.00000000  0.40000000  8.000000e-03
  0.20000000  0.00000000  0.60000000  8.000000e-03
  0.20000000  0.00000000  0.80000000  8.000000e-03
  0.20000000  0.20000000  0.00000000  8.000000e-03
  0.20000000  0.20000000  0.20000000  8.000000e-03
  0.20000000  0.20000000  0.40000000  8.000000e-03
  0.20000000  0.20000000  0.60000000  8.000000e-03
  0.20000000  0.20000000  0.80000000  8.000000e-03
  0.20000000  0.40000000  0.00000000  8.000000e-03
  0.20000000  0.40000000  0.20000000  8.000000e-03
  0.20000000  0.40000000  0.40000000  8.000000e-03
  0.20000000  0.40000000  0.60000000  8.000000e-03
  0.20000000  0.40000000  0.80000000  8.000000e-03
  0.20000000  0.60000000  0.00000000  8.000000e-03
  0.20000000  0.60000000  0.20000000  8.000000e-03
  0.20000000  0.60000000  0.40000000  8.000000e-03
  0.20000000  0.60000000  0.60000000  8.000000e-03
  0.20000000  0.60000000  0.80000000  8.000000e-03
  0.20000000  0.80000000  0.00000000  8.000000e-03
  0.20000000  0.80000000  0.20000000  8.000000e-03
  0.20000000  0.80000000  0.40000000  8.000000e-03
  0.20000000  0.80000000  0.60000000  8.000000e-03
  0.20000000  0.80000000  0.80000000  8.000000e-03
  0.40000000  0.00000000  0.00000000  8.000000e-03
  0.40000000  0.00000000  0.20000000  8.000000e-03
  0.40000000  0.00000000  0.40000000  8.000000e-03
  0.40000000  0.00000000  0.60000000  8.000000e-03
  0.40000000  0.00000000  0.80000000  8.000000e-03
  0.40000000  0.20000000  0.00000000  8.000000e-03
  0.40000000  0.20000000  0.20000000  8.000000e-03
  0.40000000  0.20000000  0.40000000  8.000000e-03
  0.40000000  0.20000000  0.60000000  8.000000e-03
  0.40000000  0.20000000  0.80000000  8.000000e-03
  0.40000000  0.40000000  0.00000000  8.000000e-03
  0.40000000  0.40000000  0.20000000  8.000000e-03
  0.40000000  0.40000000  0.40000000  8.000000e-03
  0.40000000  0.40000000  0.60000000  8.000000e-03
  0.40000000  0.40000000  0.80000000  8.000000e-03
  0.40000000  0.60000000  0.00000000  8.000000e-03
  0.40000000  0.60000000  0.20000000  8.000000e-03
  0.40000000  0.60000000  0.40000000  8.000000e-03
  0.40000000  0.60000000  0.60000000  8.000000e-03
  0.40000000  0.60000000  0.80000000  8.000000e-03
  0.40000000  0.80000000  0.00000000  8.000000e-03
  0.40000000  0.80000000  0.20000000  8.000000e-03
  0.40000000  0.80000000  0.40000000  8.000000e-03
  0.40000000  0.80000000  0.60000000  8.000000e-03
  0.40000000  0.80000000  0.80000000  8.000000e-03
  0.60000000  0.00000000  0.00000000  8.000000e-03
  0.60000000  0.00000000  0.20000000  8.000000e-03
  0.60000000  0.00000000  0.40000000  8.000000e-03
  0.60000000  0.00000000  0.60000000  8.000000e-03
  0.60000000  0.00000000  0.80000000  8.000000e-03
  0.60000000  0.20000000  0.00000000  8.000000e-03
  0.60000000  0.20000000  0.20000000  8.000000e-03
  0.60000000  0.20000000  0.40000000  8.000000e-03
  0.60000000  0.20000000  0.60000000  8.000000e-03
  0.60000000  0.20000000  0.80000000  8.000000e-03
  0.60000000  0.40000000  0.00000000  8.000000e-03
  0.60000000  0.40000000  0.20000000  8.000000e-03
  0.60000000  0.40000000  0.40000000  8.000000e-03
  0.60000000  0.40000000  0.60000000  8.000000e-03
  0.60000000  0.40000000  0.80000000  8.000000e-03
  0.60000000  0.60000000  0.00000000  8.000000e-03
  0.60000000  0.60000000  0.20000000  8.000000e-03
  0.60000000  0.60000000  0.40000000  8.000000e-03
  0.60000000  0.60000000  0.60000000  8.000000e-03
  0.60000000  0.60000000  0.80000000  8.000000e-03
  0.60000000  0.80000000  0.00000000  8.000000e-03
  0.60000000  0.80000000  0.20000000  8.000000e-03
  0.60000000  0.80000000  0.40000000  8.000000e-03
  0.60000000  0.80000000  0.60000000  8.000000e-03
  0.60000000  0.80000000  0.80000000  8.000000e-03
  0.80000000  0.00000000  0.00000000  8.000000e-03
  0.80000000  0.00000000  0.20000000  8.000000e-03
  0.80000000  0.00000000  0.40000000  8.000000e-03
  0.80000000  0.00000000  0.60000000  8.000000e-03
  0.80000000  0.00000000  0.80000000  8.000000e-03
  0.80000000  0.20000000  0.00000000  8.000000e-03
  0.80000000  0.20000000  0.20000000  8.000000e-03
  0.80000000  0.20000000  0.40000000  8.000000e-03
  0.80000000  0.20000000  0.60000000  8.000000e-03
  0.80000000  0.20000000  0.80000000  8.000000e-03
  0.80000000  0.40000000  0.00000000  8.000000e-03
  0.80000000  0.40000000  0.20000000  8.000000e-03
  0.80000000  0.40000000  0.40000000  8.000000e-03
  0.80000000  0.40000000  0.60000000  8.000000e-03
  0.80000000  0.40000000  0.80000000  8.000000e-03
  0.80000000  0.60000000  0.00000000  8.000000e-03
  0.80000000  0.60000000  0.20000000  8.000000e-03
  0.80000000  0.60000000  0.40000000  8.000000e-03
  0.80000000  0.60000000  0.60000000  8.000000e-03
  0.80000000  0.60000000  0.80000000  8.000000e-03
  0.80000000  0.80000000  0.00000000  8.000000e-03
  0.80000000  0.80000000  0.20000000  8.000000e-03
  0.80000000  0.80000000  0.40000000  8.000000e-03
  0.80000000  0.80000000  0.60000000  8.000000e-03
  0.80000000  0.80000000  0.80000000  8.000000e-03
