begin unit_cell_cart
Ang
      5.6089601520       0.0000000000       0.0000000000
      0.0000000000       5.6247601510       0.0000000000
      0.0000000000       0.0000000000       7.9310002330
end unit_cell_cart

begin atoms_frac
Sr           0.9986064020       0.4997747990       0.2500000000
Sr           0.0013936000       0.5002251980       0.7500000000
Sr           0.5013935980       0.9997748020       0.7500000000
Sr           0.4986063990       0.0002252000       0.2500000000
Mo           0.0000000000       0.0000000000       0.0000000000
Mo           0.0000000000       0.0000000000       0.5000000000
Mo           0.5000000000       0.5000000000       0.5000000000
Mo           0.5000000000       0.5000000000       0.0000000000
O            0.2526627000       0.7526578010       0.9820288120
O            0.7473373000       0.2473422010       0.0179712000
O            0.7526627000       0.7473421990       0.5179711880
O            0.2473373000       0.2526578010       0.4820288120
O            0.7473373000       0.2473422010       0.4820288120
O            0.2526627000       0.7526578010       0.5179711880
O            0.2473373000       0.2526578010       0.0179712000
O            0.7526627000       0.7473421990       0.9820288120
O            0.0002706000       0.9641942080       0.2500000000
O            0.9997294010       0.0358057990       0.7500000000
O            0.4997294010       0.4641942110       0.7500000000
O            0.5002705990       0.5358057920       0.2500000000
end atoms_frac

! system
num_wann = 12
num_bands = 12
mp_grid 5 5 5

! job control
exclude_bands : 1-80,93-101
iprint = 2

! plotting
wannier_plot = false
wannier_plot_supercell = 3
bands_plot = true
bands_num_points = 100
bands_plot_format = gnuplot
write_hr = true
write_u_matrices = true

! disentanglement
!dis_win_min = 11.0
!dis_win_max = 14.0
!dis_froz_min = 11.0
!dis_froz_max = 13.3
!dis_num_iter = 1000
!dis_conv_tol = 1.0E-9
!dis_mix_ratio = 0.9

! wannierisation
num_iter = 500
conv_window = 5
conv_tol = 1e-12

begin kpoint_path
G 0.00 0.00 0.00 X 0.00 0.50 0.00
X 0.00 0.50 0.00 M 0.50 0.50 0.00
M 0.50 0.50 0.00 G 0.00 0.00 0.00
G 0.00 0.00 0.00 Z 0.00 0.00 0.50
Z 0.00 0.00 0.50 R 0.00 0.50 0.50
R 0.00 0.50 0.50 A 0.50 0.50 0.50
A 0.50 0.50 0.50 Z 0.00 0.00 0.50
end kpoint_path

begin projections
!Mo:d
f=0,0,0:l=2,mr=2,3,5:z=0,0,1:x=1,1,0
f=0,0,0.5:l=2,mr=2,3,5:z=0,0,1:x=1,1,0
f=0.5,0.5,0.5:l=2,mr=2,3,5:z=0,0,1:x=1,1,0
f=0.5,0.5,0:l=2,mr=2,3,5:z=0,0,1:x=1,1,0
!f=0,0,0:l=2,mr=1,4:z=0,0,1:x=1,1,0
!f=0,0,0.5:l=2,mr=1,4:z=0,0,1:x=1,1,0
!f=0.5,0.5,0.5:l=2,mr=1,4:z=0,0,1:x=1,1,0
!f=0.5,0.5,0:l=2,mr=1,4:z=0,0,1:x=1,1,0
!O:px,py,pz
end projections

begin kpoints
  0.00000000  0.00000000  0.00000000
  0.00000000  0.00000000  0.20000000
  0.00000000  0.00000000  0.40000000
  0.00000000  0.00000000  0.60000000
  0.00000000  0.00000000  0.80000000
  0.00000000  0.20000000  0.00000000
  0.00000000  0.20000000  0.20000000
  0.00000000  0.20000000  0.40000000
  0.00000000  0.20000000  0.60000000
  0.00000000  0.20000000  0.80000000
  0.00000000  0.40000000  0.00000000
  0.00000000  0.40000000  0.20000000
  0.00000000  0.40000000  0.40000000
  0.00000000  0.40000000  0.60000000
  0.00000000  0.40000000  0.80000000
  0.00000000  0.60000000  0.00000000
  0.00000000  0.60000000  0.20000000
  0.00000000  0.60000000  0.40000000
  0.00000000  0.60000000  0.60000000
  0.00000000  0.60000000  0.80000000
  0.00000000  0.80000000  0.00000000
  0.00000000  0.80000000  0.20000000
  0.00000000  0.80000000  0.40000000
  0.00000000  0.80000000  0.60000000
  0.00000000  0.80000000  0.80000000
  0.20000000  0.00000000  0.00000000
  0.20000000  0.00000000  0.20000000
  0.20000000  0.00000000  0.40000000
  0.20000000  0.00000000  0.60000000
  0.20000000  0.00000000  0.80000000
  0.20000000  0.20000000  0.00000000
  0.20000000  0.20000000  0.20000000
  0.20000000  0.20000000  0.40000000
  0.20000000  0.20000000  0.60000000
  0.20000000  0.20000000  0.80000000
  0.20000000  0.40000000  0.00000000
  0.20000000  0.40000000  0.20000000
  0.20000000  0.40000000  0.40000000
  0.20000000  0.40000000  0.60000000
  0.20000000  0.40000000  0.80000000
  0.20000000  0.60000000  0.00000000
  0.20000000  0.60000000  0.20000000
  0.20000000  0.60000000  0.40000000
  0.20000000  0.60000000  0.60000000
  0.20000000  0.60000000  0.80000000
  0.20000000  0.80000000  0.00000000
  0.20000000  0.80000000  0.20000000
  0.20000000  0.80000000  0.40000000
  0.20000000  0.80000000  0.60000000
  0.20000000  0.80000000  0.80000000
  0.40000000  0.00000000  0.00000000
  0.40000000  0.00000000  0.20000000
  0.40000000  0.00000000  0.40000000
  0.40000000  0.00000000  0.60000000
  0.40000000  0.00000000  0.80000000
  0.40000000  0.20000000  0.00000000
  0.40000000  0.20000000  0.20000000
  0.40000000  0.20000000  0.40000000
  0.40000000  0.20000000  0.60000000
  0.40000000  0.20000000  0.80000000
  0.40000000  0.40000000  0.00000000
  0.40000000  0.40000000  0.20000000
  0.40000000  0.40000000  0.40000000
  0.40000000  0.40000000  0.60000000
  0.40000000  0.40000000  0.80000000
  0.40000000  0.60000000  0.00000000
  0.40000000  0.60000000  0.20000000
  0.40000000  0.60000000  0.40000000
  0.40000000  0.60000000  0.60000000
  0.40000000  0.60000000  0.80000000
  0.40000000  0.80000000  0.00000000
  0.40000000  0.80000000  0.20000000
  0.40000000  0.80000000  0.40000000
  0.40000000  0.80000000  0.60000000
  0.40000000  0.80000000  0.80000000
  0.60000000  0.00000000  0.00000000
  0.60000000  0.00000000  0.20000000
  0.60000000  0.00000000  0.40000000
  0.60000000  0.00000000  0.60000000
  0.60000000  0.00000000  0.80000000
  0.60000000  0.20000000  0.00000000
  0.60000000  0.20000000  0.20000000
  0.60000000  0.20000000  0.40000000
  0.60000000  0.20000000  0.60000000
  0.60000000  0.20000000  0.80000000
  0.60000000  0.40000000  0.00000000
  0.60000000  0.40000000  0.20000000
  0.60000000  0.40000000  0.40000000
  0.60000000  0.40000000  0.60000000
  0.60000000  0.40000000  0.80000000
  0.60000000  0.60000000  0.00000000
  0.60000000  0.60000000  0.20000000
  0.60000000  0.60000000  0.40000000
  0.60000000  0.60000000  0.60000000
  0.60000000  0.60000000  0.80000000
  0.60000000  0.80000000  0.00000000
  0.60000000  0.80000000  0.20000000
  0.60000000  0.80000000  0.40000000
  0.60000000  0.80000000  0.60000000
  0.60000000  0.80000000  0.80000000
  0.80000000  0.00000000  0.00000000
  0.80000000  0.00000000  0.20000000
  0.80000000  0.00000000  0.40000000
  0.80000000  0.00000000  0.60000000
  0.80000000  0.00000000  0.80000000
  0.80000000  0.20000000  0.00000000
  0.80000000  0.20000000  0.20000000
  0.80000000  0.20000000  0.40000000
  0.80000000  0.20000000  0.60000000
  0.80000000  0.20000000  0.80000000
  0.80000000  0.40000000  0.00000000
  0.80000000  0.40000000  0.20000000
  0.80000000  0.40000000  0.40000000
  0.80000000  0.40000000  0.60000000
  0.80000000  0.40000000  0.80000000
  0.80000000  0.60000000  0.00000000
  0.80000000  0.60000000  0.20000000
  0.80000000  0.60000000  0.40000000
  0.80000000  0.60000000  0.60000000
  0.80000000  0.60000000  0.80000000
  0.80000000  0.80000000  0.00000000
  0.80000000  0.80000000  0.20000000
  0.80000000  0.80000000  0.40000000
  0.80000000  0.80000000  0.60000000
  0.80000000  0.80000000  0.80000000
end kpoints
