&CONTROL
  calculation = 'bands'
  etot_conv_thr =   6.0000000000d-05
  forc_conv_thr =   1.0000000000d-04
  outdir = './out/'
  prefix = 'smo'
  pseudo_dir = '../pseudo/'
  tprnfor = .true.
  tstress = .true.
  verbosity = 'high'
/
&SYSTEM
  degauss =   1.5000000000d-03
  ecutrho =   4.0000000000d+02
  ecutwfc =   5.0000000000d+01
  ibrav = 0
  nat = 20
  nosym = .false.
  ntyp = 3
  nbnd = 115
  occupations = 'smearing'
  smearing = 'f-d'
/
&ELECTRONS
  conv_thr =   4.0000000000d-10
  electron_maxstep = 80
  mixing_beta =   4.0000000000d-01
  startingpot        = 'file',
  diago_full_acc     = .true.,
/
ATOMIC_SPECIES
Sr 87.62 Sr.pz-spn-kjpaw_psl.1.0.0.UPF
Mo 95.95 Mo.pz-spn-kjpaw_psl.1.0.0.UPF
O 15.999 O.pz-n-kjpaw_psl.1.0.0.UPF

CELL_PARAMETERS angstrom
5.60000000000000 0.00000000000000 0.00000000000000
0.00000000000000 5.60000000000000 0.00000000000000
0.00000000000000 0.00000000000000 7.70000000000000

ATOMIC_POSITIONS crystal
Sr 0.0000000000 0.5000000000 0.2500000000
Sr 0.0000000000 0.5000000000 0.7500000000
Sr 0.5000000000 0.0000000000 0.7500000000
Sr 0.5000000000 0.0000000000 0.2500000000
Mo 0.0000000000 0.0000000000 0.0000000000
Mo 0.0000000000 0.0000000000 0.5000000000
Mo 0.5000000000 0.5000000000 0.5000000000
Mo 0.5000000000 0.5000000000 0.0000000000
O 0.2500000000 0.7500000000 0.0000000000
O 0.2500000000 0.2500000000 0.0000000000
O 0.7500000000 0.2500000000 0.5000000000
O 0.7500000000 0.7500000000 0.5000000000
O 0.7500000000 0.2500000000 0.0000000000
O 0.7500000000 0.7500000000 0.0000000000
O 0.2500000000 0.7500000000 0.5000000000
O 0.2500000000 0.2500000000 0.5000000000
O 0.0000000000 0.0000000000 0.2500000000
O 0.0000000000 0.0000000000 0.7500000000
O 0.5000000000 0.5000000000 0.7500000000
O 0.5000000000 0.5000000000 0.2500000000
K_POINTS crystal_b
8
  0.0000000000  0.0000000000  0.0000000000 10 !Γ
  0.0000000000  0.5000000000  0.0000000000 10 !X
  0.5000000000  0.5000000000  0.0000000000 10 !M
  0.0000000000  0.0000000000  0.0000000000 10 !Γ
  0.0000000000  0.0000000000  0.5000000000 10 !Z
  0.0000000000  0.5000000000  0.5000000000 10 !R
  0.5000000000  0.5000000000  0.5000000000 10 !A
  0.0000000000  0.0000000000  0.5000000000 10 !Z
