&CONTROL
   calculation      = 'scf'
   verbosity        = 'high'
   outdir           = './out'
   prefix           = 'smo'
   pseudo_dir       = '../../../pseudo/'
/
&SYSTEM
   ibrav            = 0
   nat              = 20
   ntyp             = 3
   ecutwfc          = 50.0
   ecutrho          = 400.0
   nosym            = .false.
   occupations      = 'smearing'
   degauss          = 0.0015
   smearing         = 'f-d'
/
&ELECTRONS
   electron_maxstep = 80
   conv_thr         = 1e-09
   mixing_beta      = 0.4
/
&IONS
/
&CELL
/
&FCP
/
&RISM
/
ATOMIC_SPECIES
Sr 87.62 Sr.pz-spn-kjpaw_psl.1.0.0.UPF
Mo 95.95 Mo.pz-spn-kjpaw_psl.1.0.0.UPF
O 15.999 O.pz-n-kjpaw_psl.1.0.0.UPF

K_POINTS automatic
5 5 5  0 0 0

CELL_PARAMETERS angstrom
5.61396000000000 0.00000000000000 0.00000000000000
0.00000000000000 5.61396000000000 0.00000000000000
0.00000000000000 0.00000000000000 7.93934000000000

ATOMIC_POSITIONS crystal
Sr 0.0000000000 0.5000000000 0.2500000000  
Sr 0.0000000000 0.5000000000 0.7500000000  
Sr 0.5000000000 0.0000000000 0.7500000000  
Sr 0.5000000000 0.0000000000 0.2500000000  
Mo 0.0000000000 0.0000000000 0.0000000000  
Mo 0.0000000000 0.0000000000 0.5000000000  
Mo 0.5000000000 0.5000000000 0.5000000000  
Mo 0.5000000000 0.5000000000 0.0000000000  
O 0.2500000000 0.7500000000 -0.0222650000  
O 0.2500000000 0.2500000000 0.0222650000  
O 0.7500000000 0.2500000000 0.4777350000  
O 0.7500000000 0.7500000000 0.5222650000  
O 0.7500000000 0.2500000000 0.0222650000  
O 0.7500000000 0.7500000000 -0.0222650000  
O 0.2500000000 0.7500000000 0.5222650000  
O 0.2500000000 0.2500000000 0.4777350000  
O 0.0000000000 -0.0445300000 0.2500000000  
O 0.0000000000 0.0445300000 0.7500000000  
O 0.5000000000 0.4554700000 0.7500000000  
O 0.5000000000 0.5445300000 0.2500000000  

