begin unit_cell_cart
Ang
      5.6089601520       0.0000000000       0.0000000000
      0.0000000000       5.6247601510       0.0000000000
      0.0000000000       0.0000000000       7.9310002330
end unit_cell_cart

begin atoms_frac
Sr           0.9944256070       0.4990991950       0.2500000000
Sr           0.0055744000       0.5009007930       0.7500000000
Sr           0.5055743930       0.9990992070       0.7500000000
Sr           0.4944255950       0.0009008000       0.2500000000
Mo           0.0000000000       0.0000000000       0.0000000000
Mo           0.0000000000       0.0000000000       0.5000000000
Mo           0.5000000000       0.5000000000       0.5000000000
Mo           0.5000000000       0.5000000000       0.0000000000
O            0.2606508020       0.7606312040       0.9815452100
O            0.7393491980       0.2393688020       0.0184548000
O            0.7606508020       0.7393687960       0.5184547900
O            0.2393491980       0.2606312040       0.4815452100
O            0.7393491980       0.2393688020       0.4815452100
O            0.2606508020       0.7606312040       0.5184547900
O            0.2393491980       0.2606312040       0.0184548000
O            0.7606508020       0.7393687960       0.9815452100
O            0.0010824000       0.9636667960       0.2500000000
O            0.9989176040       0.0363332000       0.7500000000
O            0.4989176040       0.4636668080       0.7500000000
O            0.5010823960       0.5363332040       0.2500000000
end atoms_frac

! system
num_wann = 12
num_bands = 12
mp_grid 5 5 5

! job control
exclude_bands : 1-80,93-101
iprint = 2

! plotting
wannier_plot = false
wannier_plot_supercell = 3
bands_plot = true
bands_num_points = 100
bands_plot_format = gnuplot
write_hr = true
write_u_matrices = true

! disentanglement
!dis_win_min = 11.0
!dis_win_max = 14.0
!dis_froz_min = 11.0
!dis_froz_max = 13.3
!dis_num_iter = 1000
!dis_conv_tol = 1.0E-9
!dis_mix_ratio = 0.9

! wannierisation
num_iter = 500
conv_window = 5
conv_tol = 1e-12

begin kpoint_path
G 0.00 0.00 0.00 X 0.00 0.50 0.00
X 0.00 0.50 0.00 M 0.50 0.50 0.00
M 0.50 0.50 0.00 G 0.00 0.00 0.00
G 0.00 0.00 0.00 Z 0.00 0.00 0.50
Z 0.00 0.00 0.50 R 0.00 0.50 0.50
R 0.00 0.50 0.50 A 0.50 0.50 0.50
A 0.50 0.50 0.50 Z 0.00 0.00 0.50
end kpoint_path

begin projections
!Mo:d
f=0,0,0:l=2,mr=2,3,5:z=0,0,1:x=1,1,0
f=0,0,0.5:l=2,mr=2,3,5:z=0,0,1:x=1,1,0
f=0.5,0.5,0.5:l=2,mr=2,3,5:z=0,0,1:x=1,1,0
f=0.5,0.5,0:l=2,mr=2,3,5:z=0,0,1:x=1,1,0
!f=0,0,0:l=2,mr=1,4:z=0,0,1:x=1,1,0
!f=0,0,0.5:l=2,mr=1,4:z=0,0,1:x=1,1,0
!f=0.5,0.5,0.5:l=2,mr=1,4:z=0,0,1:x=1,1,0
!f=0.5,0.5,0:l=2,mr=1,4:z=0,0,1:x=1,1,0
!O:px,py,pz
end projections

begin kpoints
  0.00000000  0.00000000  0.00000000
  0.00000000  0.00000000  0.20000000
  0.00000000  0.00000000  0.40000000
  0.00000000  0.00000000  0.60000000
  0.00000000  0.00000000  0.80000000
  0.00000000  0.20000000  0.00000000
  0.00000000  0.20000000  0.20000000
  0.00000000  0.20000000  0.40000000
  0.00000000  0.20000000  0.60000000
  0.00000000  0.20000000  0.80000000
  0.00000000  0.40000000  0.00000000
  0.00000000  0.40000000  0.20000000
  0.00000000  0.40000000  0.40000000
  0.00000000  0.40000000  0.60000000
  0.00000000  0.40000000  0.80000000
  0.00000000  0.60000000  0.00000000
  0.00000000  0.60000000  0.20000000
  0.00000000  0.60000000  0.40000000
  0.00000000  0.60000000  0.60000000
  0.00000000  0.60000000  0.80000000
  0.00000000  0.80000000  0.00000000
  0.00000000  0.80000000  0.20000000
  0.00000000  0.80000000  0.40000000
  0.00000000  0.80000000  0.60000000
  0.00000000  0.80000000  0.80000000
  0.20000000  0.00000000  0.00000000
  0.20000000  0.00000000  0.20000000
  0.20000000  0.00000000  0.40000000
  0.20000000  0.00000000  0.60000000
  0.20000000  0.00000000  0.80000000
  0.20000000  0.20000000  0.00000000
  0.20000000  0.20000000  0.20000000
  0.20000000  0.20000000  0.40000000
  0.20000000  0.20000000  0.60000000
  0.20000000  0.20000000  0.80000000
  0.20000000  0.40000000  0.00000000
  0.20000000  0.40000000  0.20000000
  0.20000000  0.40000000  0.40000000
  0.20000000  0.40000000  0.60000000
  0.20000000  0.40000000  0.80000000
  0.20000000  0.60000000  0.00000000
  0.20000000  0.60000000  0.20000000
  0.20000000  0.60000000  0.40000000
  0.20000000  0.60000000  0.60000000
  0.20000000  0.60000000  0.80000000
  0.20000000  0.80000000  0.00000000
  0.20000000  0.80000000  0.20000000
  0.20000000  0.80000000  0.40000000
  0.20000000  0.80000000  0.60000000
  0.20000000  0.80000000  0.80000000
  0.40000000  0.00000000  0.00000000
  0.40000000  0.00000000  0.20000000
  0.40000000  0.00000000  0.40000000
  0.40000000  0.00000000  0.60000000
  0.40000000  0.00000000  0.80000000
  0.40000000  0.20000000  0.00000000
  0.40000000  0.20000000  0.20000000
  0.40000000  0.20000000  0.40000000
  0.40000000  0.20000000  0.60000000
  0.40000000  0.20000000  0.80000000
  0.40000000  0.40000000  0.00000000
  0.40000000  0.40000000  0.20000000
  0.40000000  0.40000000  0.40000000
  0.40000000  0.40000000  0.60000000
  0.40000000  0.40000000  0.80000000
  0.40000000  0.60000000  0.00000000
  0.40000000  0.60000000  0.20000000
  0.40000000  0.60000000  0.40000000
  0.40000000  0.60000000  0.60000000
  0.40000000  0.60000000  0.80000000
  0.40000000  0.80000000  0.00000000
  0.40000000  0.80000000  0.20000000
  0.40000000  0.80000000  0.40000000
  0.40000000  0.80000000  0.60000000
  0.40000000  0.80000000  0.80000000
  0.60000000  0.00000000  0.00000000
  0.60000000  0.00000000  0.20000000
  0.60000000  0.00000000  0.40000000
  0.60000000  0.00000000  0.60000000
  0.60000000  0.00000000  0.80000000
  0.60000000  0.20000000  0.00000000
  0.60000000  0.20000000  0.20000000
  0.60000000  0.20000000  0.40000000
  0.60000000  0.20000000  0.60000000
  0.60000000  0.20000000  0.80000000
  0.60000000  0.40000000  0.00000000
  0.60000000  0.40000000  0.20000000
  0.60000000  0.40000000  0.40000000
  0.60000000  0.40000000  0.60000000
  0.60000000  0.40000000  0.80000000
  0.60000000  0.60000000  0.00000000
  0.60000000  0.60000000  0.20000000
  0.60000000  0.60000000  0.40000000
  0.60000000  0.60000000  0.60000000
  0.60000000  0.60000000  0.80000000
  0.60000000  0.80000000  0.00000000
  0.60000000  0.80000000  0.20000000
  0.60000000  0.80000000  0.40000000
  0.60000000  0.80000000  0.60000000
  0.60000000  0.80000000  0.80000000
  0.80000000  0.00000000  0.00000000
  0.80000000  0.00000000  0.20000000
  0.80000000  0.00000000  0.40000000
  0.80000000  0.00000000  0.60000000
  0.80000000  0.00000000  0.80000000
  0.80000000  0.20000000  0.00000000
  0.80000000  0.20000000  0.20000000
  0.80000000  0.20000000  0.40000000
  0.80000000  0.20000000  0.60000000
  0.80000000  0.20000000  0.80000000
  0.80000000  0.40000000  0.00000000
  0.80000000  0.40000000  0.20000000
  0.80000000  0.40000000  0.40000000
  0.80000000  0.40000000  0.60000000
  0.80000000  0.40000000  0.80000000
  0.80000000  0.60000000  0.00000000
  0.80000000  0.60000000  0.20000000
  0.80000000  0.60000000  0.40000000
  0.80000000  0.60000000  0.60000000
  0.80000000  0.60000000  0.80000000
  0.80000000  0.80000000  0.00000000
  0.80000000  0.80000000  0.20000000
  0.80000000  0.80000000  0.40000000
  0.80000000  0.80000000  0.60000000
  0.80000000  0.80000000  0.80000000
end kpoints
