&CONTROL
  calculation = 'bands'
  etot_conv_thr =   6.0000000000d-05
  forc_conv_thr =   1.0000000000d-04
  outdir = './out/'
  prefix = 'smo'
  pseudo_dir = '../pseudo/'
  tprnfor = .true.
  tstress = .true.
  verbosity = 'high'
/
&SYSTEM
  degauss =   1.4699723600d-02
  ecutrho =   6.0000000000d+02
  ecutwfc =   7.5000000000d+01
  ibrav = 0
  nat = 20
  nosym = .false.
  ntyp = 3
  occupations = 'smearing'
  smearing = 'cold'
/
&ELECTRONS
  conv_thr =   4.0000000000d-10
  electron_maxstep = 80
  mixing_beta =   4.0000000000d-01
  startingpot        = 'file',
  diago_full_acc     = .true.,
/
ATOMIC_SPECIES
Mo     95.96 Mo_ONCV_PBEsol-1.0.upf
O      15.9994 O.pbesol-n-kjpaw_psl.0.1.UPF
Sr     87.62 sr_pbesol_v1.uspp.F.UPF
ATOMIC_POSITIONS crystal
Sr           0.0000000000       0.5000000000       0.2500000000
Sr           0.0000000000       0.5000000000       0.7500000000
Sr           0.5000000000       0.0000000000       0.7500000000
Sr           0.5000000000       0.0000000000       0.2500000000
Mo           0.0000000000       0.0000000000       0.0000000000
Mo           0.0000000000       0.0000000000       0.5000000000
Mo           0.5000000000       0.5000000000       0.5000000000
Mo           0.5000000000       0.5000000000       0.0000000000
O            0.2500000000       0.7500000000       0.0000000000
O            0.2500000000       0.2500000000       0.0000000000
O            0.7500000000       0.2500000000       0.5000000000
O            0.7500000000       0.7500000000       0.5000000000
O            0.7500000000       0.2500000000       0.0000000000
O            0.7500000000       0.7500000000       0.0000000000
O            0.2500000000       0.7500000000       0.5000000000
O            0.2500000000       0.2500000000       0.5000000000
O            0.0000000000       0.0000000000       0.2500000000
O            0.0000000000       0.0000000000       0.7500000000
O            0.5000000000       0.5000000000       0.7500000000
O            0.5000000000       0.5000000000       0.2500000000
K_POINTS crystal_b
8
  0.0000000000  0.0000000000  0.0000000000 10 !Γ
  0.0000000000  0.5000000000  0.0000000000 10 !X
  0.5000000000  0.5000000000  0.0000000000 10 !M
  0.0000000000  0.0000000000  0.0000000000 10 !Γ
  0.0000000000  0.0000000000  0.5000000000 10 !Z
  0.0000000000  0.5000000000  0.5000000000 10 !R
  0.5000000000  0.5000000000  0.5000000000 10 !A
  0.0000000000  0.0000000000  0.5000000000 10 !Z
CELL_PARAMETERS angstrom
      5.6089600000       0.0000000000       0.0000000000
      0.0000000000       5.6247600000       0.0000000000
      0.0000000000       0.0000000000       7.9310000000
