&CONTROL
  calculation = 'scf'
  etot_conv_thr =   2.0000000000d-04
  forc_conv_thr =   1.0000000000d-04
  outdir = './out/'
  prefix = 'smo'
  pseudo_dir = '../pseudo/'
  tprnfor = .true.
  tstress = .true.
  verbosity = 'high'
/
&SYSTEM
  degauss =   1.5000000000d-03
  ecutrho =   4.0000000000d+02
  ecutwfc =   5.0000000000d+01
  ibrav = 0
  nat = 20
  nosym = .false.
  ntyp = 3
  occupations = 'smearing'
  smearing = 'f-d'
/
&ELECTRONS
  conv_thr =   4.0000000000d-09
  electron_maxstep = 80
  mixing_beta =   4.0000000000d-01
/
ATOMIC_SPECIES
Mo     95.96 Mo.pz-spn-kjpaw_psl.1.0.0.UPF
O      15.9994 O.pz-n-kjpaw_psl.1.0.0.UPF
Sr     87.62 Sr.pz-spn-kjpaw_psl.1.0.0.UPF
ATOMIC_POSITIONS crystal
Sr           0.9874576150       0.4979731890       0.2500000000
Sr           0.0125424000       0.5020267850       0.7500000000
Sr           0.5125423850       0.9979732150       0.7500000000
Sr           0.4874575880       0.0020268000       0.2500000000
Mo           0.0000000000       0.0000000000       0.0000000000
Mo           0.0000000000       0.0000000000       0.5000000000
Mo           0.5000000000       0.5000000000       0.5000000000
Mo           0.5000000000       0.5000000000       0.0000000000
O            0.2739643040       0.7739202080       0.9807392060
O            0.7260356960       0.2260798050       0.0192608000
O            0.7739643040       0.7260797920       0.5192607940
O            0.2260356960       0.2739202080       0.4807392060
O            0.7260356960       0.2260798050       0.4807392060
O            0.2739643040       0.7739202080       0.5192607940
O            0.2260356960       0.2739202080       0.0192608000
O            0.7739643040       0.7260797920       0.9807392060
O            0.0024354000       0.9627877770       0.2500000000
O            0.9975646080       0.0372122010       0.7500000000
O            0.4975646080       0.4627878040       0.7500000000
O            0.5024353920       0.5372122230       0.2500000000
K_POINTS automatic
5 5 5 0 0 0
CELL_PARAMETERS angstrom
      5.6089601520       0.0000000000       0.0000000000
      0.0000000000       5.6247601510       0.0000000000
      0.0000000000       0.0000000000       7.9310002330
