&CONTROL
  calculation = 'nscf'
  wf_collect         = .true.
  etot_conv_thr =   2.0000000000d-04
  forc_conv_thr =   1.0000000000d-04
  outdir = './out/'
  prefix = 'smo'
  pseudo_dir = '../pseudo/'
  tprnfor = .true.
  tstress = .true.
  verbosity = 'high'
/
&SYSTEM
  degauss =   1.5000000000d-03
  ecutrho =   4.0000000000d+02
  ecutwfc =   5.0000000000d+01
  ibrav = 0
  nat = 20
  ntyp = 3
  occupations = 'smearing'
  smearing = 'f-d'
  dmft = .true.
  nosym = .true.
/
&ELECTRONS
  conv_thr           = 1.0d-8
  mixing_beta        = 0.3
  mixing_mode        = 'local-TF'
  startingpot        = 'file'
/
ATOMIC_SPECIES
Mo     95.96 Mo.pz-spn-kjpaw_psl.1.0.0.UPF
O      15.9994 O.pz-n-kjpaw_psl.1.0.0.UPF
Sr     87.62 Sr.pz-spn-kjpaw_psl.1.0.0.UPF
ATOMIC_POSITIONS crystal
Sr           0.9874576150       0.4979731890       0.2500000000
Sr           0.0125424000       0.5020267850       0.7500000000
Sr           0.5125423850       0.9979732150       0.7500000000
Sr           0.4874575880       0.0020268000       0.2500000000
Mo           0.0000000000       0.0000000000       0.0000000000
Mo           0.0000000000       0.0000000000       0.5000000000
Mo           0.5000000000       0.5000000000       0.5000000000
Mo           0.5000000000       0.5000000000       0.0000000000
O            0.2739643040       0.7739202080       0.9807392060
O            0.7260356960       0.2260798050       0.0192608000
O            0.7739643040       0.7260797920       0.5192607940
O            0.2260356960       0.2739202080       0.4807392060
O            0.7260356960       0.2260798050       0.4807392060
O            0.2739643040       0.7739202080       0.5192607940
O            0.2260356960       0.2739202080       0.0192608000
O            0.7739643040       0.7260797920       0.9807392060
O            0.0024354000       0.9627877770       0.2500000000
O            0.9975646080       0.0372122010       0.7500000000
O            0.4975646080       0.4627878040       0.7500000000
O            0.5024353920       0.5372122230       0.2500000000
CELL_PARAMETERS angstrom
      5.6089601520       0.0000000000       0.0000000000
      0.0000000000       5.6247601510       0.0000000000
      0.0000000000       0.0000000000       7.9310002330
K_POINTS crystal
567
  0.00000000  0.00000000  0.00000000  1.763668e-03
  0.00000000  0.00000000  0.14285714  1.763668e-03
  0.00000000  0.00000000  0.28571429  1.763668e-03
  0.00000000  0.00000000  0.42857143  1.763668e-03
  0.00000000  0.00000000  0.57142857  1.763668e-03
  0.00000000  0.00000000  0.71428571  1.763668e-03
  0.00000000  0.00000000  0.85714286  1.763668e-03
  0.00000000  0.11111111  0.00000000  1.763668e-03
  0.00000000  0.11111111  0.14285714  1.763668e-03
  0.00000000  0.11111111  0.28571429  1.763668e-03
  0.00000000  0.11111111  0.42857143  1.763668e-03
  0.00000000  0.11111111  0.57142857  1.763668e-03
  0.00000000  0.11111111  0.71428571  1.763668e-03
  0.00000000  0.11111111  0.85714286  1.763668e-03
  0.00000000  0.22222222  0.00000000  1.763668e-03
  0.00000000  0.22222222  0.14285714  1.763668e-03
  0.00000000  0.22222222  0.28571429  1.763668e-03
  0.00000000  0.22222222  0.42857143  1.763668e-03
  0.00000000  0.22222222  0.57142857  1.763668e-03
  0.00000000  0.22222222  0.71428571  1.763668e-03
  0.00000000  0.22222222  0.85714286  1.763668e-03
  0.00000000  0.33333333  0.00000000  1.763668e-03
  0.00000000  0.33333333  0.14285714  1.763668e-03
  0.00000000  0.33333333  0.28571429  1.763668e-03
  0.00000000  0.33333333  0.42857143  1.763668e-03
  0.00000000  0.33333333  0.57142857  1.763668e-03
  0.00000000  0.33333333  0.71428571  1.763668e-03
  0.00000000  0.33333333  0.85714286  1.763668e-03
  0.00000000  0.44444444  0.00000000  1.763668e-03
  0.00000000  0.44444444  0.14285714  1.763668e-03
  0.00000000  0.44444444  0.28571429  1.763668e-03
  0.00000000  0.44444444  0.42857143  1.763668e-03
  0.00000000  0.44444444  0.57142857  1.763668e-03
  0.00000000  0.44444444  0.71428571  1.763668e-03
  0.00000000  0.44444444  0.85714286  1.763668e-03
  0.00000000  0.55555556  0.00000000  1.763668e-03
  0.00000000  0.55555556  0.14285714  1.763668e-03
  0.00000000  0.55555556  0.28571429  1.763668e-03
  0.00000000  0.55555556  0.42857143  1.763668e-03
  0.00000000  0.55555556  0.57142857  1.763668e-03
  0.00000000  0.55555556  0.71428571  1.763668e-03
  0.00000000  0.55555556  0.85714286  1.763668e-03
  0.00000000  0.66666667  0.00000000  1.763668e-03
  0.00000000  0.66666667  0.14285714  1.763668e-03
  0.00000000  0.66666667  0.28571429  1.763668e-03
  0.00000000  0.66666667  0.42857143  1.763668e-03
  0.00000000  0.66666667  0.57142857  1.763668e-03
  0.00000000  0.66666667  0.71428571  1.763668e-03
  0.00000000  0.66666667  0.85714286  1.763668e-03
  0.00000000  0.77777778  0.00000000  1.763668e-03
  0.00000000  0.77777778  0.14285714  1.763668e-03
  0.00000000  0.77777778  0.28571429  1.763668e-03
  0.00000000  0.77777778  0.42857143  1.763668e-03
  0.00000000  0.77777778  0.57142857  1.763668e-03
  0.00000000  0.77777778  0.71428571  1.763668e-03
  0.00000000  0.77777778  0.85714286  1.763668e-03
  0.00000000  0.88888889  0.00000000  1.763668e-03
  0.00000000  0.88888889  0.14285714  1.763668e-03
  0.00000000  0.88888889  0.28571429  1.763668e-03
  0.00000000  0.88888889  0.42857143  1.763668e-03
  0.00000000  0.88888889  0.57142857  1.763668e-03
  0.00000000  0.88888889  0.71428571  1.763668e-03
  0.00000000  0.88888889  0.85714286  1.763668e-03
  0.11111111  0.00000000  0.00000000  1.763668e-03
  0.11111111  0.00000000  0.14285714  1.763668e-03
  0.11111111  0.00000000  0.28571429  1.763668e-03
  0.11111111  0.00000000  0.42857143  1.763668e-03
  0.11111111  0.00000000  0.57142857  1.763668e-03
  0.11111111  0.00000000  0.71428571  1.763668e-03
  0.11111111  0.00000000  0.85714286  1.763668e-03
  0.11111111  0.11111111  0.00000000  1.763668e-03
  0.11111111  0.11111111  0.14285714  1.763668e-03
  0.11111111  0.11111111  0.28571429  1.763668e-03
  0.11111111  0.11111111  0.42857143  1.763668e-03
  0.11111111  0.11111111  0.57142857  1.763668e-03
  0.11111111  0.11111111  0.71428571  1.763668e-03
  0.11111111  0.11111111  0.85714286  1.763668e-03
  0.11111111  0.22222222  0.00000000  1.763668e-03
  0.11111111  0.22222222  0.14285714  1.763668e-03
  0.11111111  0.22222222  0.28571429  1.763668e-03
  0.11111111  0.22222222  0.42857143  1.763668e-03
  0.11111111  0.22222222  0.57142857  1.763668e-03
  0.11111111  0.22222222  0.71428571  1.763668e-03
  0.11111111  0.22222222  0.85714286  1.763668e-03
  0.11111111  0.33333333  0.00000000  1.763668e-03
  0.11111111  0.33333333  0.14285714  1.763668e-03
  0.11111111  0.33333333  0.28571429  1.763668e-03
  0.11111111  0.33333333  0.42857143  1.763668e-03
  0.11111111  0.33333333  0.57142857  1.763668e-03
  0.11111111  0.33333333  0.71428571  1.763668e-03
  0.11111111  0.33333333  0.85714286  1.763668e-03
  0.11111111  0.44444444  0.00000000  1.763668e-03
  0.11111111  0.44444444  0.14285714  1.763668e-03
  0.11111111  0.44444444  0.28571429  1.763668e-03
  0.11111111  0.44444444  0.42857143  1.763668e-03
  0.11111111  0.44444444  0.57142857  1.763668e-03
  0.11111111  0.44444444  0.71428571  1.763668e-03
  0.11111111  0.44444444  0.85714286  1.763668e-03
  0.11111111  0.55555556  0.00000000  1.763668e-03
  0.11111111  0.55555556  0.14285714  1.763668e-03
  0.11111111  0.55555556  0.28571429  1.763668e-03
  0.11111111  0.55555556  0.42857143  1.763668e-03
  0.11111111  0.55555556  0.57142857  1.763668e-03
  0.11111111  0.55555556  0.71428571  1.763668e-03
  0.11111111  0.55555556  0.85714286  1.763668e-03
  0.11111111  0.66666667  0.00000000  1.763668e-03
  0.11111111  0.66666667  0.14285714  1.763668e-03
  0.11111111  0.66666667  0.28571429  1.763668e-03
  0.11111111  0.66666667  0.42857143  1.763668e-03
  0.11111111  0.66666667  0.57142857  1.763668e-03
  0.11111111  0.66666667  0.71428571  1.763668e-03
  0.11111111  0.66666667  0.85714286  1.763668e-03
  0.11111111  0.77777778  0.00000000  1.763668e-03
  0.11111111  0.77777778  0.14285714  1.763668e-03
  0.11111111  0.77777778  0.28571429  1.763668e-03
  0.11111111  0.77777778  0.42857143  1.763668e-03
  0.11111111  0.77777778  0.57142857  1.763668e-03
  0.11111111  0.77777778  0.71428571  1.763668e-03
  0.11111111  0.77777778  0.85714286  1.763668e-03
  0.11111111  0.88888889  0.00000000  1.763668e-03
  0.11111111  0.88888889  0.14285714  1.763668e-03
  0.11111111  0.88888889  0.28571429  1.763668e-03
  0.11111111  0.88888889  0.42857143  1.763668e-03
  0.11111111  0.88888889  0.57142857  1.763668e-03
  0.11111111  0.88888889  0.71428571  1.763668e-03
  0.11111111  0.88888889  0.85714286  1.763668e-03
  0.22222222  0.00000000  0.00000000  1.763668e-03
  0.22222222  0.00000000  0.14285714  1.763668e-03
  0.22222222  0.00000000  0.28571429  1.763668e-03
  0.22222222  0.00000000  0.42857143  1.763668e-03
  0.22222222  0.00000000  0.57142857  1.763668e-03
  0.22222222  0.00000000  0.71428571  1.763668e-03
  0.22222222  0.00000000  0.85714286  1.763668e-03
  0.22222222  0.11111111  0.00000000  1.763668e-03
  0.22222222  0.11111111  0.14285714  1.763668e-03
  0.22222222  0.11111111  0.28571429  1.763668e-03
  0.22222222  0.11111111  0.42857143  1.763668e-03
  0.22222222  0.11111111  0.57142857  1.763668e-03
  0.22222222  0.11111111  0.71428571  1.763668e-03
  0.22222222  0.11111111  0.85714286  1.763668e-03
  0.22222222  0.22222222  0.00000000  1.763668e-03
  0.22222222  0.22222222  0.14285714  1.763668e-03
  0.22222222  0.22222222  0.28571429  1.763668e-03
  0.22222222  0.22222222  0.42857143  1.763668e-03
  0.22222222  0.22222222  0.57142857  1.763668e-03
  0.22222222  0.22222222  0.71428571  1.763668e-03
  0.22222222  0.22222222  0.85714286  1.763668e-03
  0.22222222  0.33333333  0.00000000  1.763668e-03
  0.22222222  0.33333333  0.14285714  1.763668e-03
  0.22222222  0.33333333  0.28571429  1.763668e-03
  0.22222222  0.33333333  0.42857143  1.763668e-03
  0.22222222  0.33333333  0.57142857  1.763668e-03
  0.22222222  0.33333333  0.71428571  1.763668e-03
  0.22222222  0.33333333  0.85714286  1.763668e-03
  0.22222222  0.44444444  0.00000000  1.763668e-03
  0.22222222  0.44444444  0.14285714  1.763668e-03
  0.22222222  0.44444444  0.28571429  1.763668e-03
  0.22222222  0.44444444  0.42857143  1.763668e-03
  0.22222222  0.44444444  0.57142857  1.763668e-03
  0.22222222  0.44444444  0.71428571  1.763668e-03
  0.22222222  0.44444444  0.85714286  1.763668e-03
  0.22222222  0.55555556  0.00000000  1.763668e-03
  0.22222222  0.55555556  0.14285714  1.763668e-03
  0.22222222  0.55555556  0.28571429  1.763668e-03
  0.22222222  0.55555556  0.42857143  1.763668e-03
  0.22222222  0.55555556  0.57142857  1.763668e-03
  0.22222222  0.55555556  0.71428571  1.763668e-03
  0.22222222  0.55555556  0.85714286  1.763668e-03
  0.22222222  0.66666667  0.00000000  1.763668e-03
  0.22222222  0.66666667  0.14285714  1.763668e-03
  0.22222222  0.66666667  0.28571429  1.763668e-03
  0.22222222  0.66666667  0.42857143  1.763668e-03
  0.22222222  0.66666667  0.57142857  1.763668e-03
  0.22222222  0.66666667  0.71428571  1.763668e-03
  0.22222222  0.66666667  0.85714286  1.763668e-03
  0.22222222  0.77777778  0.00000000  1.763668e-03
  0.22222222  0.77777778  0.14285714  1.763668e-03
  0.22222222  0.77777778  0.28571429  1.763668e-03
  0.22222222  0.77777778  0.42857143  1.763668e-03
  0.22222222  0.77777778  0.57142857  1.763668e-03
  0.22222222  0.77777778  0.71428571  1.763668e-03
  0.22222222  0.77777778  0.85714286  1.763668e-03
  0.22222222  0.88888889  0.00000000  1.763668e-03
  0.22222222  0.88888889  0.14285714  1.763668e-03
  0.22222222  0.88888889  0.28571429  1.763668e-03
  0.22222222  0.88888889  0.42857143  1.763668e-03
  0.22222222  0.88888889  0.57142857  1.763668e-03
  0.22222222  0.88888889  0.71428571  1.763668e-03
  0.22222222  0.88888889  0.85714286  1.763668e-03
  0.33333333  0.00000000  0.00000000  1.763668e-03
  0.33333333  0.00000000  0.14285714  1.763668e-03
  0.33333333  0.00000000  0.28571429  1.763668e-03
  0.33333333  0.00000000  0.42857143  1.763668e-03
  0.33333333  0.00000000  0.57142857  1.763668e-03
  0.33333333  0.00000000  0.71428571  1.763668e-03
  0.33333333  0.00000000  0.85714286  1.763668e-03
  0.33333333  0.11111111  0.00000000  1.763668e-03
  0.33333333  0.11111111  0.14285714  1.763668e-03
  0.33333333  0.11111111  0.28571429  1.763668e-03
  0.33333333  0.11111111  0.42857143  1.763668e-03
  0.33333333  0.11111111  0.57142857  1.763668e-03
  0.33333333  0.11111111  0.71428571  1.763668e-03
  0.33333333  0.11111111  0.85714286  1.763668e-03
  0.33333333  0.22222222  0.00000000  1.763668e-03
  0.33333333  0.22222222  0.14285714  1.763668e-03
  0.33333333  0.22222222  0.28571429  1.763668e-03
  0.33333333  0.22222222  0.42857143  1.763668e-03
  0.33333333  0.22222222  0.57142857  1.763668e-03
  0.33333333  0.22222222  0.71428571  1.763668e-03
  0.33333333  0.22222222  0.85714286  1.763668e-03
  0.33333333  0.33333333  0.00000000  1.763668e-03
  0.33333333  0.33333333  0.14285714  1.763668e-03
  0.33333333  0.33333333  0.28571429  1.763668e-03
  0.33333333  0.33333333  0.42857143  1.763668e-03
  0.33333333  0.33333333  0.57142857  1.763668e-03
  0.33333333  0.33333333  0.71428571  1.763668e-03
  0.33333333  0.33333333  0.85714286  1.763668e-03
  0.33333333  0.44444444  0.00000000  1.763668e-03
  0.33333333  0.44444444  0.14285714  1.763668e-03
  0.33333333  0.44444444  0.28571429  1.763668e-03
  0.33333333  0.44444444  0.42857143  1.763668e-03
  0.33333333  0.44444444  0.57142857  1.763668e-03
  0.33333333  0.44444444  0.71428571  1.763668e-03
  0.33333333  0.44444444  0.85714286  1.763668e-03
  0.33333333  0.55555556  0.00000000  1.763668e-03
  0.33333333  0.55555556  0.14285714  1.763668e-03
  0.33333333  0.55555556  0.28571429  1.763668e-03
  0.33333333  0.55555556  0.42857143  1.763668e-03
  0.33333333  0.55555556  0.57142857  1.763668e-03
  0.33333333  0.55555556  0.71428571  1.763668e-03
  0.33333333  0.55555556  0.85714286  1.763668e-03
  0.33333333  0.66666667  0.00000000  1.763668e-03
  0.33333333  0.66666667  0.14285714  1.763668e-03
  0.33333333  0.66666667  0.28571429  1.763668e-03
  0.33333333  0.66666667  0.42857143  1.763668e-03
  0.33333333  0.66666667  0.57142857  1.763668e-03
  0.33333333  0.66666667  0.71428571  1.763668e-03
  0.33333333  0.66666667  0.85714286  1.763668e-03
  0.33333333  0.77777778  0.00000000  1.763668e-03
  0.33333333  0.77777778  0.14285714  1.763668e-03
  0.33333333  0.77777778  0.28571429  1.763668e-03
  0.33333333  0.77777778  0.42857143  1.763668e-03
  0.33333333  0.77777778  0.57142857  1.763668e-03
  0.33333333  0.77777778  0.71428571  1.763668e-03
  0.33333333  0.77777778  0.85714286  1.763668e-03
  0.33333333  0.88888889  0.00000000  1.763668e-03
  0.33333333  0.88888889  0.14285714  1.763668e-03
  0.33333333  0.88888889  0.28571429  1.763668e-03
  0.33333333  0.88888889  0.42857143  1.763668e-03
  0.33333333  0.88888889  0.57142857  1.763668e-03
  0.33333333  0.88888889  0.71428571  1.763668e-03
  0.33333333  0.88888889  0.85714286  1.763668e-03
  0.44444444  0.00000000  0.00000000  1.763668e-03
  0.44444444  0.00000000  0.14285714  1.763668e-03
  0.44444444  0.00000000  0.28571429  1.763668e-03
  0.44444444  0.00000000  0.42857143  1.763668e-03
  0.44444444  0.00000000  0.57142857  1.763668e-03
  0.44444444  0.00000000  0.71428571  1.763668e-03
  0.44444444  0.00000000  0.85714286  1.763668e-03
  0.44444444  0.11111111  0.00000000  1.763668e-03
  0.44444444  0.11111111  0.14285714  1.763668e-03
  0.44444444  0.11111111  0.28571429  1.763668e-03
  0.44444444  0.11111111  0.42857143  1.763668e-03
  0.44444444  0.11111111  0.57142857  1.763668e-03
  0.44444444  0.11111111  0.71428571  1.763668e-03
  0.44444444  0.11111111  0.85714286  1.763668e-03
  0.44444444  0.22222222  0.00000000  1.763668e-03
  0.44444444  0.22222222  0.14285714  1.763668e-03
  0.44444444  0.22222222  0.28571429  1.763668e-03
  0.44444444  0.22222222  0.42857143  1.763668e-03
  0.44444444  0.22222222  0.57142857  1.763668e-03
  0.44444444  0.22222222  0.71428571  1.763668e-03
  0.44444444  0.22222222  0.85714286  1.763668e-03
  0.44444444  0.33333333  0.00000000  1.763668e-03
  0.44444444  0.33333333  0.14285714  1.763668e-03
  0.44444444  0.33333333  0.28571429  1.763668e-03
  0.44444444  0.33333333  0.42857143  1.763668e-03
  0.44444444  0.33333333  0.57142857  1.763668e-03
  0.44444444  0.33333333  0.71428571  1.763668e-03
  0.44444444  0.33333333  0.85714286  1.763668e-03
  0.44444444  0.44444444  0.00000000  1.763668e-03
  0.44444444  0.44444444  0.14285714  1.763668e-03
  0.44444444  0.44444444  0.28571429  1.763668e-03
  0.44444444  0.44444444  0.42857143  1.763668e-03
  0.44444444  0.44444444  0.57142857  1.763668e-03
  0.44444444  0.44444444  0.71428571  1.763668e-03
  0.44444444  0.44444444  0.85714286  1.763668e-03
  0.44444444  0.55555556  0.00000000  1.763668e-03
  0.44444444  0.55555556  0.14285714  1.763668e-03
  0.44444444  0.55555556  0.28571429  1.763668e-03
  0.44444444  0.55555556  0.42857143  1.763668e-03
  0.44444444  0.55555556  0.57142857  1.763668e-03
  0.44444444  0.55555556  0.71428571  1.763668e-03
  0.44444444  0.55555556  0.85714286  1.763668e-03
  0.44444444  0.66666667  0.00000000  1.763668e-03
  0.44444444  0.66666667  0.14285714  1.763668e-03
  0.44444444  0.66666667  0.28571429  1.763668e-03
  0.44444444  0.66666667  0.42857143  1.763668e-03
  0.44444444  0.66666667  0.57142857  1.763668e-03
  0.44444444  0.66666667  0.71428571  1.763668e-03
  0.44444444  0.66666667  0.85714286  1.763668e-03
  0.44444444  0.77777778  0.00000000  1.763668e-03
  0.44444444  0.77777778  0.14285714  1.763668e-03
  0.44444444  0.77777778  0.28571429  1.763668e-03
  0.44444444  0.77777778  0.42857143  1.763668e-03
  0.44444444  0.77777778  0.57142857  1.763668e-03
  0.44444444  0.77777778  0.71428571  1.763668e-03
  0.44444444  0.77777778  0.85714286  1.763668e-03
  0.44444444  0.88888889  0.00000000  1.763668e-03
  0.44444444  0.88888889  0.14285714  1.763668e-03
  0.44444444  0.88888889  0.28571429  1.763668e-03
  0.44444444  0.88888889  0.42857143  1.763668e-03
  0.44444444  0.88888889  0.57142857  1.763668e-03
  0.44444444  0.88888889  0.71428571  1.763668e-03
  0.44444444  0.88888889  0.85714286  1.763668e-03
  0.55555556  0.00000000  0.00000000  1.763668e-03
  0.55555556  0.00000000  0.14285714  1.763668e-03
  0.55555556  0.00000000  0.28571429  1.763668e-03
  0.55555556  0.00000000  0.42857143  1.763668e-03
  0.55555556  0.00000000  0.57142857  1.763668e-03
  0.55555556  0.00000000  0.71428571  1.763668e-03
  0.55555556  0.00000000  0.85714286  1.763668e-03
  0.55555556  0.11111111  0.00000000  1.763668e-03
  0.55555556  0.11111111  0.14285714  1.763668e-03
  0.55555556  0.11111111  0.28571429  1.763668e-03
  0.55555556  0.11111111  0.42857143  1.763668e-03
  0.55555556  0.11111111  0.57142857  1.763668e-03
  0.55555556  0.11111111  0.71428571  1.763668e-03
  0.55555556  0.11111111  0.85714286  1.763668e-03
  0.55555556  0.22222222  0.00000000  1.763668e-03
  0.55555556  0.22222222  0.14285714  1.763668e-03
  0.55555556  0.22222222  0.28571429  1.763668e-03
  0.55555556  0.22222222  0.42857143  1.763668e-03
  0.55555556  0.22222222  0.57142857  1.763668e-03
  0.55555556  0.22222222  0.71428571  1.763668e-03
  0.55555556  0.22222222  0.85714286  1.763668e-03
  0.55555556  0.33333333  0.00000000  1.763668e-03
  0.55555556  0.33333333  0.14285714  1.763668e-03
  0.55555556  0.33333333  0.28571429  1.763668e-03
  0.55555556  0.33333333  0.42857143  1.763668e-03
  0.55555556  0.33333333  0.57142857  1.763668e-03
  0.55555556  0.33333333  0.71428571  1.763668e-03
  0.55555556  0.33333333  0.85714286  1.763668e-03
  0.55555556  0.44444444  0.00000000  1.763668e-03
  0.55555556  0.44444444  0.14285714  1.763668e-03
  0.55555556  0.44444444  0.28571429  1.763668e-03
  0.55555556  0.44444444  0.42857143  1.763668e-03
  0.55555556  0.44444444  0.57142857  1.763668e-03
  0.55555556  0.44444444  0.71428571  1.763668e-03
  0.55555556  0.44444444  0.85714286  1.763668e-03
  0.55555556  0.55555556  0.00000000  1.763668e-03
  0.55555556  0.55555556  0.14285714  1.763668e-03
  0.55555556  0.55555556  0.28571429  1.763668e-03
  0.55555556  0.55555556  0.42857143  1.763668e-03
  0.55555556  0.55555556  0.57142857  1.763668e-03
  0.55555556  0.55555556  0.71428571  1.763668e-03
  0.55555556  0.55555556  0.85714286  1.763668e-03
  0.55555556  0.66666667  0.00000000  1.763668e-03
  0.55555556  0.66666667  0.14285714  1.763668e-03
  0.55555556  0.66666667  0.28571429  1.763668e-03
  0.55555556  0.66666667  0.42857143  1.763668e-03
  0.55555556  0.66666667  0.57142857  1.763668e-03
  0.55555556  0.66666667  0.71428571  1.763668e-03
  0.55555556  0.66666667  0.85714286  1.763668e-03
  0.55555556  0.77777778  0.00000000  1.763668e-03
  0.55555556  0.77777778  0.14285714  1.763668e-03
  0.55555556  0.77777778  0.28571429  1.763668e-03
  0.55555556  0.77777778  0.42857143  1.763668e-03
  0.55555556  0.77777778  0.57142857  1.763668e-03
  0.55555556  0.77777778  0.71428571  1.763668e-03
  0.55555556  0.77777778  0.85714286  1.763668e-03
  0.55555556  0.88888889  0.00000000  1.763668e-03
  0.55555556  0.88888889  0.14285714  1.763668e-03
  0.55555556  0.88888889  0.28571429  1.763668e-03
  0.55555556  0.88888889  0.42857143  1.763668e-03
  0.55555556  0.88888889  0.57142857  1.763668e-03
  0.55555556  0.88888889  0.71428571  1.763668e-03
  0.55555556  0.88888889  0.85714286  1.763668e-03
  0.66666667  0.00000000  0.00000000  1.763668e-03
  0.66666667  0.00000000  0.14285714  1.763668e-03
  0.66666667  0.00000000  0.28571429  1.763668e-03
  0.66666667  0.00000000  0.42857143  1.763668e-03
  0.66666667  0.00000000  0.57142857  1.763668e-03
  0.66666667  0.00000000  0.71428571  1.763668e-03
  0.66666667  0.00000000  0.85714286  1.763668e-03
  0.66666667  0.11111111  0.00000000  1.763668e-03
  0.66666667  0.11111111  0.14285714  1.763668e-03
  0.66666667  0.11111111  0.28571429  1.763668e-03
  0.66666667  0.11111111  0.42857143  1.763668e-03
  0.66666667  0.11111111  0.57142857  1.763668e-03
  0.66666667  0.11111111  0.71428571  1.763668e-03
  0.66666667  0.11111111  0.85714286  1.763668e-03
  0.66666667  0.22222222  0.00000000  1.763668e-03
  0.66666667  0.22222222  0.14285714  1.763668e-03
  0.66666667  0.22222222  0.28571429  1.763668e-03
  0.66666667  0.22222222  0.42857143  1.763668e-03
  0.66666667  0.22222222  0.57142857  1.763668e-03
  0.66666667  0.22222222  0.71428571  1.763668e-03
  0.66666667  0.22222222  0.85714286  1.763668e-03
  0.66666667  0.33333333  0.00000000  1.763668e-03
  0.66666667  0.33333333  0.14285714  1.763668e-03
  0.66666667  0.33333333  0.28571429  1.763668e-03
  0.66666667  0.33333333  0.42857143  1.763668e-03
  0.66666667  0.33333333  0.57142857  1.763668e-03
  0.66666667  0.33333333  0.71428571  1.763668e-03
  0.66666667  0.33333333  0.85714286  1.763668e-03
  0.66666667  0.44444444  0.00000000  1.763668e-03
  0.66666667  0.44444444  0.14285714  1.763668e-03
  0.66666667  0.44444444  0.28571429  1.763668e-03
  0.66666667  0.44444444  0.42857143  1.763668e-03
  0.66666667  0.44444444  0.57142857  1.763668e-03
  0.66666667  0.44444444  0.71428571  1.763668e-03
  0.66666667  0.44444444  0.85714286  1.763668e-03
  0.66666667  0.55555556  0.00000000  1.763668e-03
  0.66666667  0.55555556  0.14285714  1.763668e-03
  0.66666667  0.55555556  0.28571429  1.763668e-03
  0.66666667  0.55555556  0.42857143  1.763668e-03
  0.66666667  0.55555556  0.57142857  1.763668e-03
  0.66666667  0.55555556  0.71428571  1.763668e-03
  0.66666667  0.55555556  0.85714286  1.763668e-03
  0.66666667  0.66666667  0.00000000  1.763668e-03
  0.66666667  0.66666667  0.14285714  1.763668e-03
  0.66666667  0.66666667  0.28571429  1.763668e-03
  0.66666667  0.66666667  0.42857143  1.763668e-03
  0.66666667  0.66666667  0.57142857  1.763668e-03
  0.66666667  0.66666667  0.71428571  1.763668e-03
  0.66666667  0.66666667  0.85714286  1.763668e-03
  0.66666667  0.77777778  0.00000000  1.763668e-03
  0.66666667  0.77777778  0.14285714  1.763668e-03
  0.66666667  0.77777778  0.28571429  1.763668e-03
  0.66666667  0.77777778  0.42857143  1.763668e-03
  0.66666667  0.77777778  0.57142857  1.763668e-03
  0.66666667  0.77777778  0.71428571  1.763668e-03
  0.66666667  0.77777778  0.85714286  1.763668e-03
  0.66666667  0.88888889  0.00000000  1.763668e-03
  0.66666667  0.88888889  0.14285714  1.763668e-03
  0.66666667  0.88888889  0.28571429  1.763668e-03
  0.66666667  0.88888889  0.42857143  1.763668e-03
  0.66666667  0.88888889  0.57142857  1.763668e-03
  0.66666667  0.88888889  0.71428571  1.763668e-03
  0.66666667  0.88888889  0.85714286  1.763668e-03
  0.77777778  0.00000000  0.00000000  1.763668e-03
  0.77777778  0.00000000  0.14285714  1.763668e-03
  0.77777778  0.00000000  0.28571429  1.763668e-03
  0.77777778  0.00000000  0.42857143  1.763668e-03
  0.77777778  0.00000000  0.57142857  1.763668e-03
  0.77777778  0.00000000  0.71428571  1.763668e-03
  0.77777778  0.00000000  0.85714286  1.763668e-03
  0.77777778  0.11111111  0.00000000  1.763668e-03
  0.77777778  0.11111111  0.14285714  1.763668e-03
  0.77777778  0.11111111  0.28571429  1.763668e-03
  0.77777778  0.11111111  0.42857143  1.763668e-03
  0.77777778  0.11111111  0.57142857  1.763668e-03
  0.77777778  0.11111111  0.71428571  1.763668e-03
  0.77777778  0.11111111  0.85714286  1.763668e-03
  0.77777778  0.22222222  0.00000000  1.763668e-03
  0.77777778  0.22222222  0.14285714  1.763668e-03
  0.77777778  0.22222222  0.28571429  1.763668e-03
  0.77777778  0.22222222  0.42857143  1.763668e-03
  0.77777778  0.22222222  0.57142857  1.763668e-03
  0.77777778  0.22222222  0.71428571  1.763668e-03
  0.77777778  0.22222222  0.85714286  1.763668e-03
  0.77777778  0.33333333  0.00000000  1.763668e-03
  0.77777778  0.33333333  0.14285714  1.763668e-03
  0.77777778  0.33333333  0.28571429  1.763668e-03
  0.77777778  0.33333333  0.42857143  1.763668e-03
  0.77777778  0.33333333  0.57142857  1.763668e-03
  0.77777778  0.33333333  0.71428571  1.763668e-03
  0.77777778  0.33333333  0.85714286  1.763668e-03
  0.77777778  0.44444444  0.00000000  1.763668e-03
  0.77777778  0.44444444  0.14285714  1.763668e-03
  0.77777778  0.44444444  0.28571429  1.763668e-03
  0.77777778  0.44444444  0.42857143  1.763668e-03
  0.77777778  0.44444444  0.57142857  1.763668e-03
  0.77777778  0.44444444  0.71428571  1.763668e-03
  0.77777778  0.44444444  0.85714286  1.763668e-03
  0.77777778  0.55555556  0.00000000  1.763668e-03
  0.77777778  0.55555556  0.14285714  1.763668e-03
  0.77777778  0.55555556  0.28571429  1.763668e-03
  0.77777778  0.55555556  0.42857143  1.763668e-03
  0.77777778  0.55555556  0.57142857  1.763668e-03
  0.77777778  0.55555556  0.71428571  1.763668e-03
  0.77777778  0.55555556  0.85714286  1.763668e-03
  0.77777778  0.66666667  0.00000000  1.763668e-03
  0.77777778  0.66666667  0.14285714  1.763668e-03
  0.77777778  0.66666667  0.28571429  1.763668e-03
  0.77777778  0.66666667  0.42857143  1.763668e-03
  0.77777778  0.66666667  0.57142857  1.763668e-03
  0.77777778  0.66666667  0.71428571  1.763668e-03
  0.77777778  0.66666667  0.85714286  1.763668e-03
  0.77777778  0.77777778  0.00000000  1.763668e-03
  0.77777778  0.77777778  0.14285714  1.763668e-03
  0.77777778  0.77777778  0.28571429  1.763668e-03
  0.77777778  0.77777778  0.42857143  1.763668e-03
  0.77777778  0.77777778  0.57142857  1.763668e-03
  0.77777778  0.77777778  0.71428571  1.763668e-03
  0.77777778  0.77777778  0.85714286  1.763668e-03
  0.77777778  0.88888889  0.00000000  1.763668e-03
  0.77777778  0.88888889  0.14285714  1.763668e-03
  0.77777778  0.88888889  0.28571429  1.763668e-03
  0.77777778  0.88888889  0.42857143  1.763668e-03
  0.77777778  0.88888889  0.57142857  1.763668e-03
  0.77777778  0.88888889  0.71428571  1.763668e-03
  0.77777778  0.88888889  0.85714286  1.763668e-03
  0.88888889  0.00000000  0.00000000  1.763668e-03
  0.88888889  0.00000000  0.14285714  1.763668e-03
  0.88888889  0.00000000  0.28571429  1.763668e-03
  0.88888889  0.00000000  0.42857143  1.763668e-03
  0.88888889  0.00000000  0.57142857  1.763668e-03
  0.88888889  0.00000000  0.71428571  1.763668e-03
  0.88888889  0.00000000  0.85714286  1.763668e-03
  0.88888889  0.11111111  0.00000000  1.763668e-03
  0.88888889  0.11111111  0.14285714  1.763668e-03
  0.88888889  0.11111111  0.28571429  1.763668e-03
  0.88888889  0.11111111  0.42857143  1.763668e-03
  0.88888889  0.11111111  0.57142857  1.763668e-03
  0.88888889  0.11111111  0.71428571  1.763668e-03
  0.88888889  0.11111111  0.85714286  1.763668e-03
  0.88888889  0.22222222  0.00000000  1.763668e-03
  0.88888889  0.22222222  0.14285714  1.763668e-03
  0.88888889  0.22222222  0.28571429  1.763668e-03
  0.88888889  0.22222222  0.42857143  1.763668e-03
  0.88888889  0.22222222  0.57142857  1.763668e-03
  0.88888889  0.22222222  0.71428571  1.763668e-03
  0.88888889  0.22222222  0.85714286  1.763668e-03
  0.88888889  0.33333333  0.00000000  1.763668e-03
  0.88888889  0.33333333  0.14285714  1.763668e-03
  0.88888889  0.33333333  0.28571429  1.763668e-03
  0.88888889  0.33333333  0.42857143  1.763668e-03
  0.88888889  0.33333333  0.57142857  1.763668e-03
  0.88888889  0.33333333  0.71428571  1.763668e-03
  0.88888889  0.33333333  0.85714286  1.763668e-03
  0.88888889  0.44444444  0.00000000  1.763668e-03
  0.88888889  0.44444444  0.14285714  1.763668e-03
  0.88888889  0.44444444  0.28571429  1.763668e-03
  0.88888889  0.44444444  0.42857143  1.763668e-03
  0.88888889  0.44444444  0.57142857  1.763668e-03
  0.88888889  0.44444444  0.71428571  1.763668e-03
  0.88888889  0.44444444  0.85714286  1.763668e-03
  0.88888889  0.55555556  0.00000000  1.763668e-03
  0.88888889  0.55555556  0.14285714  1.763668e-03
  0.88888889  0.55555556  0.28571429  1.763668e-03
  0.88888889  0.55555556  0.42857143  1.763668e-03