&BANDS
   prefix  = 'smo',
   outdir  = './out/',
   filband = 'smo_bands.dat'
   lsym    = .false.,
/

