&CONTROL
  calculation = 'scf'
  restart_mode       = 'restart'
  wf_collect         = .true.
  etot_conv_thr =   2.0000000000d-04
  forc_conv_thr =   1.0000000000d-04
  outdir = './out/'
  prefix = 'smo'
  pseudo_dir = '../pseudo/'
  tprnfor = .true.
  tstress = .true.
  verbosity = 'high'
/
&SYSTEM
  degauss =   1.5000000000d-03
  ecutrho =   4.0000000000d+02
  ecutwfc =   5.0000000000d+01
  ibrav = 0
  nat = 20
  ntyp = 3
  occupations = 'smearing'
  smearing = 'f-d'
  dmft = .true.
  nosym = .true.
  dmft_prefix        = 'smo'
/
&ELECTRONS
   electron_maxstep   = 1
   conv_thr           = 1.0d-15
   mixing_beta        = 0.3
   mixing_mode        = 'local-TF'
   startingpot        = 'file'
   startingwfc        = 'file'
/
ATOMIC_SPECIES
Mo     95.96 Mo_ONCV_PBEsol-1.0.upf
O      15.9994 O.pbesol-n-kjpaw_psl.0.1.UPF
Sr     87.62 sr_pbesol_v1.uspp.F.UPF
ATOMIC_POSITIONS crystal
Sr           0.9930320090       0.4988739940       0.2500000000
Sr           0.0069680000       0.5011259910       0.7500000000
Sr           0.5069679920       0.9988740090       0.7500000000
Sr           0.4930319930       0.0011260000       0.2500000000
Mo           0.0000000000       0.0000000000       0.0000000000
Mo           0.0000000000       0.0000000000       0.5000000000
Mo           0.5000000000       0.5000000000       0.5000000000
Mo           0.5000000000       0.5000000000       0.0000000000
O            0.2633135020       0.7632890050       0.9813840090
O            0.7366864980       0.2367110030       0.0186160000
O            0.7633135020       0.7367109950       0.5186159910
O            0.2366864980       0.2632890050       0.4813840090
O            0.7366864980       0.2367110030       0.4813840090
O            0.2633135020       0.7632890050       0.5186159910
O            0.2366864980       0.2632890050       0.0186160000
O            0.7633135020       0.7367109950       0.9813840090
O            0.0013530000       0.9634909930       0.2500000000
O            0.9986470040       0.0365090000       0.7500000000
O            0.4986470040       0.4634910070       0.7500000000
O            0.5013529960       0.5365090070       0.2500000000
K_POINTS crystal
125
  0.00000000  0.00000000  0.00000000  8.000000e-03
  0.00000000  0.00000000  0.20000000  8.000000e-03
  0.00000000  0.00000000  0.40000000  8.000000e-03
  0.00000000  0.00000000  0.60000000  8.000000e-03
  0.00000000  0.00000000  0.80000000  8.000000e-03
  0.00000000  0.20000000  0.00000000  8.000000e-03
  0.00000000  0.20000000  0.20000000  8.000000e-03
  0.00000000  0.20000000  0.40000000  8.000000e-03
  0.00000000  0.20000000  0.60000000  8.000000e-03
  0.00000000  0.20000000  0.80000000  8.000000e-03
  0.00000000  0.40000000  0.00000000  8.000000e-03
  0.00000000  0.40000000  0.20000000  8.000000e-03
  0.00000000  0.40000000  0.40000000  8.000000e-03
  0.00000000  0.40000000  0.60000000  8.000000e-03
  0.00000000  0.40000000  0.80000000  8.000000e-03
  0.00000000  0.60000000  0.00000000  8.000000e-03
  0.00000000  0.60000000  0.20000000  8.000000e-03
  0.00000000  0.60000000  0.40000000  8.000000e-03
  0.00000000  0.60000000  0.60000000  8.000000e-03
  0.00000000  0.60000000  0.80000000  8.000000e-03
  0.00000000  0.80000000  0.00000000  8.000000e-03
  0.00000000  0.80000000  0.20000000  8.000000e-03
  0.00000000  0.80000000  0.40000000  8.000000e-03
  0.00000000  0.80000000  0.60000000  8.000000e-03
  0.00000000  0.80000000  0.80000000  8.000000e-03
  0.20000000  0.00000000  0.00000000  8.000000e-03
  0.20000000  0.00000000  0.20000000  8.000000e-03
  0.20000000  0.00000000  0.40000000  8.000000e-03
  0.20000000  0.00000000  0.60000000  8.000000e-03
  0.20000000  0.00000000  0.80000000  8.000000e-03
  0.20000000  0.20000000  0.00000000  8.000000e-03
  0.20000000  0.20000000  0.20000000  8.000000e-03
  0.20000000  0.20000000  0.40000000  8.000000e-03
  0.20000000  0.20000000  0.60000000  8.000000e-03
  0.20000000  0.20000000  0.80000000  8.000000e-03
  0.20000000  0.40000000  0.00000000  8.000000e-03
  0.20000000  0.40000000  0.20000000  8.000000e-03
  0.20000000  0.40000000  0.40000000  8.000000e-03
  0.20000000  0.40000000  0.60000000  8.000000e-03
  0.20000000  0.40000000  0.80000000  8.000000e-03
  0.20000000  0.60000000  0.00000000  8.000000e-03
  0.20000000  0.60000000  0.20000000  8.000000e-03
  0.20000000  0.60000000  0.40000000  8.000000e-03
  0.20000000  0.60000000  0.60000000  8.000000e-03
  0.20000000  0.60000000  0.80000000  8.000000e-03
  0.20000000  0.80000000  0.00000000  8.000000e-03
  0.20000000  0.80000000  0.20000000  8.000000e-03
  0.20000000  0.80000000  0.40000000  8.000000e-03
  0.20000000  0.80000000  0.60000000  8.000000e-03
  0.20000000  0.80000000  0.80000000  8.000000e-03
  0.40000000  0.00000000  0.00000000  8.000000e-03
  0.40000000  0.00000000  0.20000000  8.000000e-03
  0.40000000  0.00000000  0.40000000  8.000000e-03
  0.40000000  0.00000000  0.60000000  8.000000e-03
  0.40000000  0.00000000  0.80000000  8.000000e-03
  0.40000000  0.20000000  0.00000000  8.000000e-03
  0.40000000  0.20000000  0.20000000  8.000000e-03
  0.40000000  0.20000000  0.40000000  8.000000e-03
  0.40000000  0.20000000  0.60000000  8.000000e-03
  0.40000000  0.20000000  0.80000000  8.000000e-03
  0.40000000  0.40000000  0.00000000  8.000000e-03
  0.40000000  0.40000000  0.20000000  8.000000e-03
  0.40000000  0.40000000  0.40000000  8.000000e-03
  0.40000000  0.40000000  0.60000000  8.000000e-03
  0.40000000  0.40000000  0.80000000  8.000000e-03
  0.40000000  0.60000000  0.00000000  8.000000e-03
  0.40000000  0.60000000  0.20000000  8.000000e-03
  0.40000000  0.60000000  0.40000000  8.000000e-03
  0.40000000  0.60000000  0.60000000  8.000000e-03
  0.40000000  0.60000000  0.80000000  8.000000e-03
  0.40000000  0.80000000  0.00000000  8.000000e-03
  0.40000000  0.80000000  0.20000000  8.000000e-03
  0.40000000  0.80000000  0.40000000  8.000000e-03
  0.40000000  0.80000000  0.60000000  8.000000e-03
  0.40000000  0.80000000  0.80000000  8.000000e-03
  0.60000000  0.00000000  0.00000000  8.000000e-03
  0.60000000  0.00000000  0.20000000  8.000000e-03
  0.60000000  0.00000000  0.40000000  8.000000e-03
  0.60000000  0.00000000  0.60000000  8.000000e-03
  0.60000000  0.00000000  0.80000000  8.000000e-03
  0.60000000  0.20000000  0.00000000  8.000000e-03
  0.60000000  0.20000000  0.20000000  8.000000e-03
  0.60000000  0.20000000  0.40000000  8.000000e-03
  0.60000000  0.20000000  0.60000000  8.000000e-03
  0.60000000  0.20000000  0.80000000  8.000000e-03
  0.60000000  0.40000000  0.00000000  8.000000e-03
  0.60000000  0.40000000  0.20000000  8.000000e-03
  0.60000000  0.40000000  0.40000000  8.000000e-03
  0.60000000  0.40000000  0.60000000  8.000000e-03
  0.60000000  0.40000000  0.80000000  8.000000e-03
  0.60000000  0.60000000  0.00000000  8.000000e-03
  0.60000000  0.60000000  0.20000000  8.000000e-03
  0.60000000  0.60000000  0.40000000  8.000000e-03
  0.60000000  0.60000000  0.60000000  8.000000e-03
  0.60000000  0.60000000  0.80000000  8.000000e-03
  0.60000000  0.80000000  0.00000000  8.000000e-03
  0.60000000  0.80000000  0.20000000  8.000000e-03
  0.60000000  0.80000000  0.40000000  8.000000e-03
  0.60000000  0.80000000  0.60000000  8.000000e-03
  0.60000000  0.80000000  0.80000000  8.000000e-03
  0.80000000  0.00000000  0.00000000  8.000000e-03
  0.80000000  0.00000000  0.20000000  8.000000e-03
  0.80000000  0.00000000  0.40000000  8.000000e-03
  0.80000000  0.00000000  0.60000000  8.000000e-03
  0.80000000  0.00000000  0.80000000  8.000000e-03
  0.80000000  0.20000000  0.00000000  8.000000e-03
  0.80000000  0.20000000  0.20000000  8.000000e-03
  0.80000000  0.20000000  0.40000000  8.000000e-03
  0.80000000  0.20000000  0.60000000  8.000000e-03
  0.80000000  0.20000000  0.80000000  8.000000e-03
  0.80000000  0.40000000  0.00000000  8.000000e-03
  0.80000000  0.40000000  0.20000000  8.000000e-03
  0.80000000  0.40000000  0.40000000  8.000000e-03
  0.80000000  0.40000000  0.60000000  8.000000e-03
  0.80000000  0.40000000  0.80000000  8.000000e-03
  0.80000000  0.60000000  0.00000000  8.000000e-03
  0.80000000  0.60000000  0.20000000  8.000000e-03
  0.80000000  0.60000000  0.40000000  8.000000e-03
  0.80000000  0.60000000  0.60000000  8.000000e-03
  0.80000000  0.60000000  0.80000000  8.000000e-03
  0.80000000  0.80000000  0.00000000  8.000000e-03
  0.80000000  0.80000000  0.20000000  8.000000e-03
  0.80000000  0.80000000  0.40000000  8.000000e-03
  0.80000000  0.80000000  0.60000000  8.000000e-03
  0.80000000  0.80000000  0.80000000  8.000000e-03
CELL_PARAMETERS angstrom
      5.6089601520       0.0000000000       0.0000000000
      0.0000000000       5.6247601510       0.0000000000
      0.0000000000       0.0000000000       7.9310002330
